X,Y,ux,uy,,,X1,Y1,sigma_xx,sigma_yy,sigma_xy
0,1.428571429,0,-0.00165817,,,0.035171039,0.948192664,-28.88586203,-73.17173957,0.026698067
0,0.714285714,0,-0.000889562,,,0.035171039,1.181156984,-26.76629289,-69.14088635,0.022322574
0,1.071428571,0,-0.001289434,,,0.035307201,1.898991905,-20.73255686,-56.53185347,0.008229029
0,1.25,0,-0.001477754,,,0.035307201,1.666027585,-22.60935339,-60.65571183,0.01284433
0,0.892857143,0,-0.001093331,,,0.035430033,0.454644642,-33.63045174,-81.621717,0.03506607
0,2.142857143,0,-0.00229834,,,0.035430033,0.221680322,-35.98224684,-85.57402799,0.038122381
0,1.428571429,0,-0.00165817,,,0.035555366,2.615564386,-15.40866792,-43.664977,-0.004739418
0,1.785714286,0,-0.001994797,,,0.035555366,2.382600066,-17.07040836,-47.87669027,-0.00080596
0,1.964285714,0,-0.002150764,,,0.035700146,3.332388032,-10.62006124,-30.56805217,-0.013631753
0,1.607142857,0,-0.001830559,,,0.035700146,3.099423712,-12.13213411,-34.84342001,-0.011386259
0,2.857142857,0,-0.002802524,,,0.035793102,4.050891352,-6.077953468,-17.33138333,-0.015058645
0,2.142857143,0,-0.00229834,,,0.035793102,3.817927031,-7.544518423,-21.62519174,-0.01562149
0,2.5,0,-0.002567865,,,0.03667535,4.545355358,-2.898756467,-8.252077809,-0.010163226
0,2.678571429,0,-0.002689601,,,0.03667535,4.778319678,-1.334310736,-4.007857976,-0.005616197
0,2.321428571,0,-0.00243741,,,0.041751889,1.352958615,-25.25389793,-66.14932667,0.022546315
0,3.571428571,0,-0.003164545,,,0.041751889,0.773863646,-30.52293268,-76.16950028,0.035371032
0,2.857142857,0,-0.002802524,,,0.041913527,2.071457628,-19.39135507,-53.45945568,0.005817064
0,3.214285714,0,-0.003001599,,,0.041913527,1.492362659,-24.05863337,-63.70989901,0.019363842
0,3.392857143,0,-0.003087614,,,0.042059343,0.045063582,-37.80787721,-88.55812978,0.047467218
0,3.035714286,0,-0.002906548,,,0.042059343,0.624158551,-31.96299798,-78.73210915,0.038576697
0,4.285714286,0,-0.003381031,,,0.042208126,2.209363017,-18.34746708,-50.99123876,0.002775568
0,3.571428571,0,-0.003164545,,,0.042208126,2.788457986,-14.21299426,-40.52333558,-0.008746698
0,3.928571429,0,-0.00329104,,,0.042379996,3.505756503,-9.513605332,-27.37825576,-0.017549579
0,4.107142857,0,-0.00334059,,,0.042379996,2.926661535,-13.27802059,-38.00330254,-0.011036061
0,3.75,0,-0.003232359,,,0.042490346,4.225048979,-4.973301561,-14.12587419,-0.016490842
0,5,0,-0.003452897,,,0.042490346,3.64595401,-8.626905157,-24.79543794,-0.018273812
0,4.285714286,0,-0.003381031,,,0.043537671,4.954936418,-0.105011468,-0.811915845,-0.001477986
0,4.642857143,0,-0.003434778,,,0.043537671,4.375841449,-4.005449244,-11.35624686,-0.01497621
0,4.821428571,0,-0.003448239,,,0.083665416,1.416749846,-24.70200199,-65.03356864,0.042194594
0,4.464285714,0,-0.003412405,,,0.083811232,0.683736483,-31.38507532,-77.71244347,0.074534841
0,0.714285714,0,-0.000889562,,,0.084121653,2.137963503,-18.88348724,-52.26983273,0.008690416
0,0,0,0,,,0.084588122,2.857976664,-13.73952641,-39.25634192,-0.019842435
0,0.357142857,0,-0.000459477,,,0.084870342,3.580281942,-9.04129848,-26.00549954,-0.035941443
0,0.535714286,0,-0.000678242,,,0.086028017,4.315176143,-4.397279403,-12.46968468,-0.031244702
0,0.178571429,0,-0.000233367,,,0.164976304,1.129798777,-27.21974246,-70.02706525,0.109461868
0,2.142857143,0,-0.00229834,,,0.164976304,0.949698945,-28.86513878,-73.14050378,0.125171358
0,1.428571429,0,-0.00165817,,,0.165614994,1.860732706,-21.02825956,-57.2075754,0.04225958
0,2.857142857,0,-0.002802524,,,0.165614994,1.680632875,-22.48202333,-60.3941165,0.0589656
0,0.714285714,0,-0.000889562,,,0.166191163,0.358161793,-34.59135456,-83.25453647,0.170973627
0,3.571428571,0,-0.003164545,,,0.166191163,0.178061961,-36.42565465,-86.30499833,0.181310617
0,4.285714286,0,-0.003381031,,,0.166779058,2.585744928,-15.61192651,-44.20323434,-0.019829424
0.165448331,0.771801077,6.37689E-06,-0.000955959,,,0.166779058,2.405645096,-16.89669599,-47.45861847,-0.005598347
0.165448331,1.307515363,9.15777E-06,-0.001536647,,,0.167458176,3.311935279,-10.7483911,-30.94294319,-0.063024076
0.165448331,1.128943934,8.39235E-06,-0.001350865,,,0.167458176,3.131835448,-11.91563012,-34.2482057,-0.055022856
0.165448331,0.950372506,7.46443E-06,-0.001157263,,,0.167894205,4.046004458,-6.110547489,-17.42119248,-0.070679481
0.165448331,1.307515363,9.15777E-06,-0.001536647,,,0.167894205,3.865904626,-7.243304287,-20.74030915,-0.073157979
0.165448331,0.771801077,6.37689E-06,-0.000955959,,,0.172032554,4.821938039,-1.043612771,-3.216649167,-0.021637167
0.166088849,1.50278264,9.84538E-06,-0.001730702,,,0.172032554,4.641838207,-2.265113358,-6.490851486,-0.039636925
0.166088849,2.038496926,1.06416E-05,-0.002213021,,,0.20538918,1.240330492,-26.22932563,-68.10491044,0.123933742
0.166088849,1.859925497,1.05345E-05,-0.002060528,,,0.20538918,0.823646599,-30.04099518,-75.30639056,0.169072118
0.166088849,1.681354068,1.02705E-05,-0.001899715,,,0.206184325,1.975342596,-20.12263352,-55.16838649,0.039603221
0.166088849,2.038496926,1.06416E-05,-0.002213021,,,0.206184325,1.558658704,-23.48870241,-62.53943363,0.087709188
0.166088849,1.50278264,9.84538E-06,-0.001730702,,,0.206901634,0.454644642,-33.62210052,-81.61181266,0.205079454
0.166666667,0,0,0,,,0.206901634,0.03796075,-37.87672584,-88.6666092,0.234159398
0.166666667,0.535714286,4.73733E-06,-0.000678192,,,0.20763354,2.702982401,-14.79147681,-42.07491319,-0.0354101
0.166666667,0.357142857,3.29053E-06,-0.000459441,,,0.20763354,2.286298509,-17.76515504,-49.60549337,0.005575993
0.166666667,0.535714286,4.73733E-06,-0.000678192,,,0.208479016,3.432088933,-9.978406071,-28.73302357,-0.083620108
0.166666667,0.178571429,1.70746E-06,-0.000233347,,,0.208479016,3.01540504,-12.67940456,-36.37907464,-0.060650077
0.167256243,2.227825552,1.06647E-05,-0.00236548,,,0.209021856,4.171004302,-5.321699752,-15.11975755,-0.083562213
0.167256243,2.763539838,9.67816E-06,-0.002744339,,,0.209021856,3.75432041,-7.943951578,-22.79717313,-0.091037747
0.167256243,2.584968409,1.01347E-05,-0.002626784,,,0.214173942,4.96203925,-0.070978745,-0.683840935,-0.00614437
0.167256243,2.40639698,1.04672E-05,-0.002500464,,,0.214173942,4.545355358,-2.908825957,-8.252069775,-0.059352681
0.167256243,2.227825552,1.06647E-05,-0.00236548,,,0.240696381,1.294067076,-25.75181312,-67.1665198,0.13820193
0.167256243,2.763539838,9.67816E-06,-0.002744339,,,0.240819214,0.7477251,-30.7586978,-76.60541855,0.207248169
0.167937304,2.954049965,9.10558E-06,-0.002859988,,,0.241355365,1.494963831,-24.02071647,-63.65493966,0.111405294
0.167937304,3.48976425,6.86194E-06,-0.003130399,,,0.241739691,2.031365947,-19.68412762,-54.16793685,0.039160426
0.167937304,3.311192822,7.67803E-06,-0.003049308,,,0.242072673,0.504832019,-33.1207163,-80.75394722,0.235007895
0.167937304,3.132621393,8.43191E-06,-0.002959153,,,0.242940741,2.226152843,-18.20718268,-50.68363331,0.014131342
0.167937304,2.954049965,9.10558E-06,-0.002859988,,,0.243333686,2.761543683,-14.38528233,-41.00900308,-0.047375882
0.167937304,3.48976425,6.86194E-06,-0.003130399,,,0.244034382,2.957546142,-13.06108637,-37.43569609,-0.066020043
0.168374581,3.688175747,5.92178E-06,-0.00320982,,,0.244272118,3.49486782,-9.578308485,-27.57709934,-0.100448878
0.168374581,4.223890033,3.31396E-06,-0.003367956,,,0.244722002,3.698999442,-8.290990593,-23.81659193,-0.105978872
0.168374581,4.045318604,4.16162E-06,-0.003324369,,,0.245697206,4.246925802,-4.841187657,-13.72344557,-0.09388108
0.168374581,3.866747176,5.0392E-06,-0.003271662,,,0.249967044,4.494251996,-3.247507981,-9.186619329,-0.074797689
0.168374581,3.688175747,5.92178E-06,-0.00320982,,,0.330591298,1.381860223,-24.97366796,-65.6258023,0.174010382
0.168374581,4.223890033,3.31396E-06,-0.003367956,,,0.331167467,0.593575024,-32.23694336,-79.22950183,0.309085705
0.172524771,4.464285714,2.3227E-06,-0.003412289,,,0.331840717,1.007706586,-28.30822543,-72.12294325,0.242406176
0.172524771,5,6.67736E-07,-0.003452745,,,0.332394052,2.12352066,-18.96536197,-52.51578269,0.037747899
0.172524771,4.821428571,1.07299E-06,-0.003448101,,,0.333125407,1.755479264,-21.84881811,-59.0597405,0.105261942
0.172524771,4.642857143,1.63477E-06,-0.003434653,,,0.334237234,2.860437518,-13.70264846,-39.20440926,-0.077929924
0.172524771,4.464285714,2.3227E-06,-0.003412289,,,0.33428434,0.178061961,-36.41239129,-86.28276847,0.365525072
0.330896662,0.82931644,1.35147E-05,-0.001021429,,,0.335352381,3.606411334,-8.870808301,-25.52152576,-0.142452385
0.330896662,1.186459297,1.73453E-05,-0.001411315,,,0.335466857,2.491340755,-16.26061199,-45.90363211,-0.024469055
0.330896662,1.007887868,1.55911E-05,-0.001220239,,,0.336832866,3.229571989,-11.26842397,-32.45183779,-0.119362266
0.330896662,1.186459297,1.73453E-05,-0.001411315,,,0.337709914,3.983651047,-6.507402865,-18.56914948,-0.144318957
0.330896662,0.82931644,1.35147E-05,-0.001021429,,,0.33992676,4.402128379,-3.85547588,-10.8739566,-0.113697167
0.33153718,1.381726574,1.89261E-05,-0.001611258,,,0.346033975,4.821938039,-1.072610102,-3.216647544,-0.043514059
0.332114998,0.593229648,1.03279E-05,-0.00074691,,,0.421233105,1.082400725,-27.60795333,-70.81868092,0.291703488
0.332177698,1.576993851,2.01193E-05,-0.001801647,,,0.421233105,0.898681153,-29.30156427,-73.98796243,0.332169483
0.332177698,1.934136708,2.1232E-05,-0.002124623,,,0.422863869,1.839194236,-21.15747848,-57.56812108,0.11451685
0.332177698,1.75556528,2.08355E-05,-0.001967258,,,0.422863869,1.655474664,-22.64608872,-60.81427906,0.15811147
0.332177698,1.934136708,2.1232E-05,-0.002124623,,,0.424334999,0.221680322,-35.95248992,-85.52741721,0.458867258
0.332177698,1.576993851,2.01193E-05,-0.001801647,,,0.424334999,0.03796075,-37.85909289,-88.62857367,0.482017848
0.333333333,0.357142857,6.59516E-06,-0.000459335,,,0.425836067,2.580867884,-15.61113455,-44.27814612,-0.04813302
0.333333333,0.178571429,3.42256E-06,-0.00023329,,,0.425836067,2.397148312,-16.92035977,-47.5963192,-0.010903628
0.333333333,0.357142857,6.59516E-06,-0.000459335,,,0.427570056,3.325549644,-10.64339278,-30.6867917,-0.161039293
0.333333333,0,0,0,,,0.427570056,3.141830071,-11.82735129,-34.05737523,-0.140389801
0.333345092,2.123465335,2.13893E-05,-0.002282322,,,0.428683367,4.09034837,-5.843013679,-16.60337205,-0.177186958
0.334512486,2.312793961,2.12119E-05,-0.002430478,,,0.428683367,3.906628798,-6.991520519,-19.98766322,-0.185328834
0.334512486,2.669936818,1.98958E-05,-0.002683519,,,0.439249792,4.96203925,-0.125586275,-0.683842897,-0.012612718
0.334512486,2.491365389,2.06841E-05,-0.002561354,,,0.439249792,4.778319678,-1.393003193,-4.007855323,-0.067267604
0.334512486,2.312793961,2.12119E-05,-0.002430478,,,0.456540306,1.136137309,-27.11370542,-69.88233332,0.303255771
0.334512486,2.669936818,1.98958E-05,-0.002683519,,,0.456663138,0.822759653,-30.00813231,-75.28587504,0.377950217
0.335193548,2.860446945,1.88324E-05,-0.002804136,,,0.458034909,1.591779792,-23.16486118,-61.93030469,0.188094024
0.335874609,3.050957072,1.75262E-05,-0.002914624,,,0.458419235,1.895217588,-20.70449448,-56.57014942,0.110192411
0.335874609,3.408099929,1.44974E-05,-0.003094156,,,0.459506039,0.271867699,-35.43333009,-84.670492,0.489424807
0.335874609,3.229528501,1.60828E-05,-0.003008911,,,0.461143268,2.337002646,-17.34979315,-48.67572089,0.002411348
0.335874609,3.050957072,1.75262E-05,-0.002914624,,,0.461536213,2.639429166,-15.19485321,-43.21450492,-0.064034246
0.335874609,3.408099929,1.44974E-05,-0.003094156,,,0.463125421,3.083971173,-12.19995957,-35.1151744,-0.143481793
0.336311886,3.606511426,1.2632E-05,-0.003178209,,,0.463363158,3.388328531,-10.24017872,-29.53198607,-0.180539219
0.336749163,3.804922923,1.069E-05,-0.003250996,,,0.464383513,3.85130783,-7.337039884,-21.00673443,-0.201484065
0.336749163,4.16206578,7.18693E-06,-0.00335359,,,0.465358717,4.16626987,-5.369301662,-15.20589538,-0.185936665
0.336749163,3.983494351,8.91766E-06,-0.003306859,,,0.475042894,4.727216316,-1.74725687,-4.936361476,-0.087184573
0.336749163,3.804922923,1.069E-05,-0.003250996,,,0.497455711,1.259768032,-26.00097942,-67.72888782,0.297272624
0.336749163,4.16206578,7.18693E-06,-0.00335359,,,0.49803188,0.651582664,-31.64020679,-78.20752458,0.453444624
0.340899352,4.402461461,5.07537E-06,-0.003402116,,,0.498101711,1.456706613,-24.29236793,-64.29308076,0.24289346
0.345049542,4.642857143,3.22109E-06,-0.003434269,,,0.499260644,0.413475192,-33.99202395,-82.26083997,0.505851111
0.345049542,5,1.26355E-06,-0.003452281,,,0.499904465,2.018267217,-19.7331291,-54.3767065,0.086871601
0.345049542,4.821428571,2.08589E-06,-0.003447681,,,0.501081851,2.209216318,-18.2834164,-50.96521659,0.035951475
0.345049542,4.642857143,3.22109E-06,-0.003434269,,,0.502925033,2.766033345,-14.31455872,-40.91281207,-0.096594928
0.496344993,0.886831803,2.13948E-05,-0.001085947,,,0.503611923,2.958174059,-13.02214431,-37.41225166,-0.13417758
0.496344993,1.065403231,2.43624E-05,-0.001282237,,,0.504727071,3.524048043,-9.379659086,-27.03432193,-0.208126207
0.496344993,1.065403231,2.43624E-05,-0.001282237,,,0.50516809,3.724157755,-8.128531773,-23.34910239,-0.21806348
0.496344993,0.886831803,2.13948E-05,-0.001085947,,,0.509742469,4.339774969,-4.27857989,-12.01743422,-0.180817976
0.496985511,1.260670508,2.70843E-05,-0.001487985,,,0.51392818,4.582228211,-2.717396903,-7.578295522,-0.13343848
0.497563329,0.650745011,1.6783E-05,-0.000814714,,,0.578289547,0.960382047,-28.68653821,-72.89303731,0.439809948
0.497626029,1.455937785,2.92219E-05,-0.001684287,,,0.580528341,1.733024558,-21.96739345,-59.42227926,0.193934576
0.498266547,1.651205062,3.07742E-05,-0.001870981,,,0.582547981,0.045063582,-37.76389505,-88.46457083,0.663391127
0.498266547,1.829776491,3.16489E-05,-0.002033166,,,0.58460872,2.484909775,-16.25181065,-45.99775598,-0.037578723
0.498266547,1.829776491,3.16489E-05,-0.002033166,,,0.586989225,3.240924677,-11.16497569,-32.23322023,-0.207071297
0.498266547,1.651205062,3.07742E-05,-0.001870981,,,0.588517634,4.024557142,-6.264523767,-17.81338933,-0.247699169
0.498781664,0.41465822,1.13511E-05,-0.000530382,,,0.603023742,4.954936418,-0.238424733,-0.811929353,-0.020497109
0.499433941,2.019105117,3.2133E-05,-0.002196058,,,0.620203074,1.024173277,-28.08461219,-71.78288266,0.451702836
0.5,0,0,0,,,0.62034889,0.870254883,-29.51556214,-74.43232196,0.501232738
0.5,0.178571429,5.15254E-06,-0.000233193,,,0.62228023,1.657411745,-22.57135389,-60.74711568,0.235134406
0.5,0.178571429,5.15254E-06,-0.000233193,,,0.622736467,1.799530433,-21.41629692,-58.23957064,0.185582931
0.500601335,2.208433744,3.21021E-05,-0.002349486,,,0.624299869,0.104641514,-37.13242481,-87.44670011,0.701601452
0.50176873,2.39776237,3.15786E-05,-0.002493313,,,0.626522247,2.41351026,-16.75029703,-47.27976781,-0.017812985
0.50176873,2.576333799,3.05918E-05,-0.00262006,,,0.626988716,2.554428453,-15.74808178,-44.73710015,-0.060038361
0.50176873,2.39776237,3.15786E-05,-0.002493313,,,0.62741743,1.212488,-26.37967751,-68.5225687,0.393396556
0.50176873,2.576333799,3.05918E-05,-0.00262006,,,0.628134739,0.639040081,-31.72867368,-78.38769441,0.57785005
0.502449791,2.766843926,2.91648E-05,-0.002745621,,,0.62825305,1.467233727,-24.16147678,-64.08345284,0.304850731
0.503130852,2.957354052,2.735E-05,-0.002861104,,,0.629197352,3.172239807,-11.59922822,-33.48952794,-0.209391049
0.503811913,3.147864179,2.51985E-05,-0.002966409,,,0.629479571,3.315450116,-10.68306109,-30.8635577,-0.23308944
0.503811913,3.326435608,2.28984E-05,-0.003055802,,,0.62972418,0.331041207,-34.79656521,-83.62104601,0.660403198
0.503811913,3.147864179,2.51985E-05,-0.002966409,,,0.63049741,1.982635602,-19.96864759,-54.99107975,0.12409808
0.503811913,3.326435608,2.28984E-05,-0.003055802,,,0.63089763,3.958885074,-6.673783173,-19.02224594,-0.26920221
0.50424919,3.524847105,2.0146E-05,-0.003144482,,,0.632020392,2.229633765,-18.09274771,-50.58192186,0.040955557
0.504686467,3.723258602,1.72427E-05,-0.003221908,,,0.632055305,4.114684305,-5.708534761,-16.15379009,-0.257689313
0.505123744,3.921670098,1.42784E-05,-0.003288047,,,0.634315083,2.739130067,-14.46693225,-41.38987583,-0.112503361
0.505123744,4.100241527,1.16305E-05,-0.003337922,,,0.635203596,2.987669615,-12.80052249,-36.86432961,-0.173737971
0.505123744,3.921670098,1.42784E-05,-0.003288047,,,0.636591912,3.508441482,-9.466398264,-27.31690512,-0.25946957
0.505123744,4.100241527,1.16305E-05,-0.003337922,,,0.637162383,3.767289159,-7.858028438,-22.55154611,-0.274731971
0.509273934,4.340637208,8.32156E-06,-0.003390643,,,0.642857309,4.349989442,-4.238050194,-11.82954344,-0.225560766
0.513424123,4.58103289,5.36264E-06,-0.00342693,,,0.645514087,4.894271112,-0.676188951,-1.907337897,-0.049981483
0.517574313,4.821428571,2.97859E-06,-0.003446963,,,0.648271648,4.663609694,-2.223112088,-6.093937719,-0.141653081
0.517574313,5,1.71552E-06,-0.00345149,,,0.697540417,1.20490968,-26.42171888,-68.63605873,0.441800897
0.517574313,4.821428571,2.97859E-06,-0.003446963,,,0.698291169,0.628305159,-31.81216158,-78.54893661,0.647400162
0.661793325,0.944347165,3.00014E-05,-0.001149485,,,0.698376036,1.459655408,-24.19988482,-64.19965281,0.34338741
0.661793325,0.944347165,3.00014E-05,-0.001149485,,,0.69988061,0.320306286,-34.88858329,-83.77863654,0.738589553
0.661793325,0.944347165,3.00014E-05,-0.001149485,,,0.701476697,1.978685465,-19.97344271,-55.04827491,0.141227837
0.661793325,0.944347165,3.00014E-05,-0.001149485,,,0.70299968,2.225683627,-18.09742194,-50.64133052,0.048645213
0.661793325,0.944347165,3.00014E-05,-0.001149485,,,0.703446766,1.015176979,-28.13823273,-71.91524731,0.51751722
0.661793325,0.944347165,3.00014E-05,-0.001149485,,,0.703632282,0.857511352,-29.60787974,-74.62702646,0.574848972
0.662433842,1.139614442,3.41149E-05,-0.001360947,,,0.705523921,1.648415446,-22.61431428,-60.88750528,0.272027524
0.662433842,1.139614442,3.41149E-05,-0.001360947,,,0.705645511,2.739169055,-14.44654617,-41.38140112,-0.123545689
0.66301166,0.708260374,2.40866E-05,-0.000881575,,,0.706534023,2.987708604,-12.78345858,-36.85749344,-0.191765311
0.66301166,0.708260374,2.40866E-05,-0.000881575,,,0.706996682,1.794841185,-21.42258777,-58.30549047,0.214489534
0.66307436,1.334881719,3.74493E-05,-0.001563074,,,0.707583261,0.091897982,-37.24991893,-87.63064395,0.800113288
0.66307436,1.334881719,3.74493E-05,-0.001563074,,,0.70809126,3.513202602,-9.429354625,-27.22629071,-0.287940824
0.663714878,1.530148997,3.99977E-05,-0.001755705,,,0.708661731,3.772050279,-7.827373752,-22.46199048,-0.304781296
0.663714878,1.530148997,3.99977E-05,-0.001755705,,,0.710782462,2.408821013,-16.75633894,-47.35227064,-0.016600925
0.664229996,0.472173583,1.7066E-05,-0.000600526,,,0.711665772,2.554474736,-15.72146259,-44.72549998,-0.066170057
0.664229996,0.472173583,1.7066E-05,-0.000600526,,,0.713726771,4.359643725,-4.192444669,-11.65207641,-0.247889084
0.664355395,1.725416274,4.17632E-05,-0.001938676,,,0.713874408,3.17228609,-11.5824982,-33.4828057,-0.23590178
0.664355395,1.725416274,4.17632E-05,-0.001938676,,,0.714357155,3.321102089,-10.63392062,-30.75498661,-0.263859314
0.664355395,1.725416274,4.17632E-05,-0.001938676,,,0.715775214,3.964537046,-6.643330936,-18.91673323,-0.30427224
0.664355395,1.725416274,4.17632E-05,-0.001938676,,,0.716185144,4.126145,-5.647272045,-15.94207049,-0.289915114
0.664355395,1.725416274,4.17632E-05,-0.001938676,,,0.719141109,4.673263977,-2.185774687,-5.918154579,-0.153413805
0.664355395,1.725416274,4.17632E-05,-0.001938676,,,0.729643927,4.905731807,-0.638100213,-1.700075305,-0.050644252
0.665448331,0.236086791,9.00596E-06,-0.000306592,,,0.74481663,0.938642217,-28.83161364,-73.22048252,0.578759382
0.665448331,0.236086791,9.00596E-06,-0.000306592,,,0.748032247,1.719339012,-22.01611085,-59.62875915,0.25968116
0.66552279,1.9147449,4.27749E-05,-0.002106703,,,0.749950059,0.03232005,-37.86890212,-88.61593787,0.861614676
0.66552279,1.9147449,4.27749E-05,-0.002106703,,,0.753545991,2.480266811,-16.23074171,-46.05879493,-0.042571642
0.666666667,0,0,0,,,0.756543865,3.246622933,-11.09868302,-32.11803621,-0.264552441
0.666666667,0,0,0,,,0.757525057,4.041669809,-6.172301502,-17.49607344,-0.315700067
0.666666667,0,0,0,,,0.771001681,4.966397113,-0.244794596,-0.60531417,-0.01962989
0.666666667,0,0,0,,,0.826380628,1.224220513,-26.1959072,-68.26266398,0.518438772
0.666690184,2.104073526,4.30828E-05,-0.002265351,,,0.827026628,1.421159094,-24.47421843,-64.83672963,0.428387502
0.666690184,2.104073526,4.30828E-05,-0.002265351,,,0.827113668,0.601228517,-32.032959,-78.96327198,0.781067534
0.667857578,2.293402153,4.27132E-05,-0.00241448,,,0.828342432,0.363121045,-34.41535655,-83.00329148,0.865025519
0.667857578,2.293402153,4.27132E-05,-0.00241448,,,0.832846022,1.999738361,-19.75529225,-54.64586271,0.16223656
0.669024973,2.482730779,4.17012E-05,-0.002553956,,,0.834023408,2.190687462,-18.30523721,-51.24249571,0.077182144
0.669024973,2.482730779,4.17012E-05,-0.002553956,,,0.837513675,2.766216228,-14.22037317,-40.87368062,-0.152035203
0.669024973,2.482730779,4.17012E-05,-0.002553956,,,0.838200566,2.958356942,-12.94007388,-37.37917997,-0.214818855
0.669024973,2.482730779,4.17012E-05,-0.002553956,,,0.840108068,3.546380961,-9.208727516,-26.6097083,-0.342776715
0.669024973,2.482730779,4.17012E-05,-0.002553956,,,0.840549087,3.746490673,-7.98061744,-22.92832274,-0.358346609
0.669024973,2.482730779,4.17012E-05,-0.002553956,,,0.842168867,4.38506018,-4.066096466,-11.18538577,-0.284769637
0.669706034,2.673240906,4.00486E-05,-0.002684432,,,0.846354578,4.627513422,-2.53405289,-6.751775523,-0.200362413
0.669706034,2.673240906,4.00486E-05,-0.002684432,,,0.866039231,1.09188201,-27.36836339,-70.53879785,0.606982572
0.670387095,2.863751033,3.78465E-05,-0.002804886,,,0.866357362,0.760070669,-30.47287169,-76.23819071,0.754857177
0.670387095,2.863751033,3.78465E-05,-0.002804886,,,0.867533834,1.547524493,-23.38186572,-62.61521526,0.389127398
0.671068156,3.05426116,3.51586E-05,-0.002915211,,,0.869200262,0.209178715,-35.98595475,-85.58451004,0.957605148
0.671068156,3.05426116,3.51586E-05,-0.002915211,,,0.872918723,1.872149871,-20.7336914,-56.89838824,0.232846337
0.671749218,3.244771287,3.2058E-05,-0.003015313,,,0.875642756,2.313934929,-17.37799589,-49.02740225,0.026812788
0.671749218,3.244771287,3.2058E-05,-0.003015313,,,0.878086259,2.639656848,-15.06902109,-43.16047919,-0.109970203
0.671749218,3.244771287,3.2058E-05,-0.003015313,,,0.879216852,4.222648223,-5.079266843,-14.16604021,-0.3371878
0.671749218,3.244771287,3.2058E-05,-0.003015313,,,0.879675468,3.084198854,-12.10899721,-35.07867057,-0.261967575
0.671749218,3.244771287,3.2058E-05,-0.003015313,,,0.880899655,3.416132159,-10.00942848,-28.99990159,-0.338926261
0.671749218,3.244771287,3.2058E-05,-0.003015313,,,0.88192001,3.879111458,-7.172514135,-20.4857136,-0.376189485
0.672186494,3.443182784,2.84673E-05,-0.003108616,,,0.888901028,4.78359467,-1.540824074,-3.912085078,-0.133130839
0.672186494,3.443182784,2.84673E-05,-0.003108616,,,0.90088846,1.027410504,-27.94199996,-71.63755516,0.663629035
0.672623771,3.64159428,2.46258E-05,-0.003190678,,,0.901050315,0.828413849,-29.80425684,-75.05493187,0.756108926
0.672623771,3.64159428,2.46258E-05,-0.003190678,,,0.903342082,1.607269227,-22.86509318,-61.55681263,0.376190143
0.673061048,3.840005777,2.06492E-05,-0.003261456,,,0.90488929,0.158991338,-36.49895752,-86.41233837,1.013301358
0.673061048,3.840005777,2.06492E-05,-0.003261456,,,0.907486344,1.8085482,-21.22236711,-58.01301925,0.275529153
0.673498325,4.038417274,1.66641E-05,-0.003320932,,,0.908294697,0.027225828,-37.88842697,-88.6258676,1.051927531
0.673498325,4.038417274,1.66641E-05,-0.003320932,,,0.911665983,2.374119584,-16.92547012,-47.93989397,0.001817944
0.673498325,4.038417274,1.66641E-05,-0.003320932,,,0.913365401,2.577145428,-15.48740999,-44.28396794,-0.087115764
0.673498325,4.038417274,1.66641E-05,-0.003320932,,,0.91404085,4.151487843,-5.520517047,-15.47343617,-0.363563864
0.673498325,4.038417274,1.66641E-05,-0.003320932,,,0.91561945,3.146818873,-11.69704618,-33.93060412,-0.289226018
0.673498325,4.038417274,1.66641E-05,-0.003320932,,,0.91643698,3.35339226,-10.39341576,-30.1482683,-0.339396127
0.677648515,4.278812956,1.20837E-05,-0.003377849,,,0.917089326,3.944086708,-6.779678975,-19.28875196,-0.387850997
0.677648515,4.278812956,1.20837E-05,-0.003377849,,,0.922591433,4.971693533,-0.304549667,-0.509817864,-0.019863782
0.681798705,4.519208637,7.90687E-06,-0.003418273,,,0.923740056,4.834698032,-1.22378652,-2.985390659,-0.108489998
0.681798705,4.519208637,7.90687E-06,-0.003418273,,,0.989847422,0.921804921,-28.87943627,-73.41622498,0.787663407
0.685948894,4.759604319,4.42584E-06,-0.003442359,,,0.992205588,1.310358355,-25.35190587,-66.70828969,0.582321891
0.685948894,4.759604319,4.42584E-06,-0.003442359,,,0.993097296,0.492290441,-33.04904899,-80.73855967,0.992743675
0.690099084,5,1.95168E-06,-0.003450342,,,0.994991881,1.701402889,-22.04131025,-59.87367005,0.365847724
0.690099084,5,1.95168E-06,-0.003450342,,,0.995748455,0.127707814,-36.80073659,-86.88996965,1.129658569
0.690099084,5,1.95168E-06,-0.003450342,,,1.002087592,2.08625089,-19.00887332,-53.06364273,0.156063134
0.690099084,5,1.95168E-06,-0.003450342,,,1.002997056,2.472994781,-16.17704492,-46.14298568,-0.042168726
0.826211024,1.029754005,4.00196E-05,-0.001242391,,,1.005517309,4.051269177,-6.140403449,-17.31451877,-0.413657057
0.826211024,1.029754005,4.00196E-05,-0.001242391,,,1.006802505,3.252087789,-11.00589361,-31.99555586,-0.344326554
0.826368345,0.836333584,3.44206E-05,-0.001027928,,,1.007243795,2.860805376,-13.52440445,-39.13059089,-0.213726888
0.826368345,0.836333584,3.44206E-05,-0.001027928,,,1.008584085,4.493217079,-3.450228453,-9.204058426,-0.299453019
0.826851542,1.225021282,4.47411E-05,-0.001449714,,,1.009773519,4.86722325,-1.064096681,-2.396470556,-0.096851134
0.82749206,1.420288559,4.84783E-05,-0.001647647,,,1.00995272,3.651332764,-8.548661739,-24.67070784,-0.419205981
0.82758668,0.600246792,2.63531E-05,-0.000754108,,,1.080538594,1.203303789,-26.24960808,-68.52642931,0.702566939
0.828132578,1.615555836,5.12288E-05,-0.001836026,,,1.081061965,0.619156129,-31.7461888,-78.5392777,1.024916245
0.828132578,1.615555836,5.12288E-05,-0.001836026,,,1.081197577,1.404200545,-24.48438636,-65.0405488,0.582742384
0.828805016,0.364160001,1.69357E-05,-0.0004673,,,1.082315424,0.376263049,-34.18670908,-82.65314697,1.138475397
0.830023351,0.12807321,6.26631E-06,-0.000167751,,,1.091837569,1.984056319,-19.74044231,-54.85098224,0.23562022
0.830023351,0.12807321,6.26631E-06,-0.000167751,,,1.093038619,2.178843215,-18.26230687,-51.38798222,0.121715888
0.83216071,1.81119462,5.32276E-05,-0.002014994,,,1.094479731,4.362552287,-4.283776607,-11.59619526,-0.375487385
0.83216071,1.81119462,5.32276E-05,-0.002014994,,,1.097637058,2.762010636,-14.14372668,-40.90590822,-0.183836507
0.833328104,2.000523247,5.40725E-05,-0.002178764,,,1.098337754,2.958013095,-12.85072991,-37.34867866,-0.268419349
0.833333333,0,0,0,,,1.098749569,4.609878481,-2.766827876,-7.072908433,-0.26869713
0.834495499,2.189851873,5.40454E-05,-0.0023331,,,1.100598605,3.551890339,-9.13932185,-26.49124195,-0.440214266
0.835662893,2.379180499,5.3185E-05,-0.002477863,,,1.101048488,3.756021961,-7.911896465,-22.7409884,-0.461777223
0.835662893,2.379180499,5.3185E-05,-0.002477863,,,1.115387823,1.138832284,-26.80900007,-69.62400848,0.766395461
0.837314691,2.576517204,5.1482E-05,-0.002618414,,,1.115754918,0.687499309,-31.05739442,-77.35798239,1.024293134
0.837314691,2.576517204,5.1482E-05,-0.002618414,,,1.117005826,1.463945279,-23.94995093,-63.98465194,0.566731921
0.837995752,2.767027331,4.9036E-05,-0.002743974,,,1.118004452,0.326075672,-34.68716455,-83.47882203,1.200027091
0.838501274,4.145656307,1.79915E-05,-0.003347344,,,1.125728063,0.027225828,-37.82964637,-88.49584017,1.318737438
0.838501274,4.145656307,1.79915E-05,-0.003347344,,,1.12640519,1.920454648,-20.21380398,-55.96511521,0.284549101
0.838676813,2.957537458,4.59358E-05,-0.002859461,,,1.129061846,2.239027869,-17.79610151,-50.30345882,0.092520002
0.839357875,3.148047585,4.22667E-05,-0.002964771,,,1.129303729,4.291391907,-4.72421471,-12.90076704,-0.410135841
0.839357875,3.148047585,4.22667E-05,-0.002964771,,,1.13098347,4.971693533,-0.465124749,-0.509826376,-0.02434823
0.840152496,3.348832425,3.78945E-05,-0.003064649,,,1.1329162,2.699499216,-14.54773575,-42.02937865,-0.157287471
0.840152496,3.348832425,3.78945E-05,-0.003064649,,,1.133588596,4.660981843,-2.467220673,-6.141377811,-0.24798935
0.840589773,3.547243921,3.31696E-05,-0.003152065,,,1.134281736,3.020633113,-12.43215543,-36.20332084,-0.300367467
0.84102705,3.745655418,2.81987E-05,-0.003228206,,,1.13613593,3.48915044,-9.513299691,-27.63934364,-0.441454589
0.841464327,3.944066915,2.31337E-05,-0.003293038,,,1.136217805,3.820997212,-7.523474001,-21.54464957,-0.477428
0.841464327,3.944066915,2.31337E-05,-0.003293038,,,1.155672382,1.007942762,-27.98349149,-71.85730151,0.87736267
0.842651464,4.386051989,1.23739E-05,-0.003396815,,,1.155831049,0.812866844,-29.82208919,-75.19843118,0.993210659
0.846801654,4.62644767,7.4177E-06,-0.00342982,,,1.160170842,1.59060215,-22.85462602,-61.7540994,0.508852901
0.849835407,5,1.91499E-06,-0.003448926,,,1.160503319,0.25687721,-35.38709937,-84.61753758,1.2782145
0.850951843,4.866843352,3.49518E-06,-0.003446542,,,1.163841631,0.127707814,-36.74481608,-86.78558297,1.332423566
0.850951843,4.866843352,3.49518E-06,-0.003446542,,,1.164233451,1.787915418,-21.23924326,-58.28944475,0.38213007
0.990628724,1.115160844,5.09155E-05,-0.001333264,,,1.170877034,4.86722325,-1.182240007,-2.396470938,-0.112215684
0.990628724,1.115160844,5.09155E-05,-0.001333264,,,1.17106124,2.368558209,-16.8307536,-47.97461646,0.021672983
0.990786045,0.921740423,4.46738E-05,-0.001122885,,,1.171932528,4.159426075,-5.521769155,-15.32266006,-0.459175787
0.990943365,0.728320002,3.72848E-05,-0.000903562,,,1.172003026,4.732926907,-2.039707115,-4.832231894,-0.210176788
0.990943365,0.728320002,3.72848E-05,-0.000903562,,,1.172727176,2.56758393,-15.42881181,-44.39976821,-0.090668718
0.991269242,1.310428121,5.60784E-05,-0.00153641,,,1.174920942,3.956111267,-6.724068374,-19.05895315,-0.488604216
0.99190976,1.505695399,6.00499E-05,-0.001730112,,,1.175845734,3.154536223,-11.56584337,-33.75639493,-0.359970641
0.99190976,1.505695399,6.00499E-05,-0.001730112,,,1.176647157,3.357039592,-10.30922919,-30.05566841,-0.423818675
0.9921617,0.49223321,2.67946E-05,-0.000623954,,,1.236642158,1.292145537,-25.36116054,-66.91324178,0.754104119
0.993380036,0.256146419,1.47249E-05,-0.000331516,,,1.237337852,0.50723067,-32.78188427,-80.3439665,1.245833319
0.993380036,0.256146419,1.47249E-05,-0.000331516,,,1.251177878,2.073014515,-18.95859637,-53.21657626,0.221544179
0.995937892,1.701334183,6.30615E-05,-0.001914516,,,1.251278459,4.473913875,-3.676248501,-9.55573734,-0.378505377
0.996690018,0.12807321,7.5833E-06,-0.000167589,,,1.257417856,2.858617719,-13.42735951,-39.12196462,-0.248274449
0.999966025,1.896972967,6.49111E-05,-0.002089105,,,1.260477507,3.658565264,-8.477883402,-24.52016046,-0.512142516
0.999966025,1.896972967,6.49111E-05,-0.002089105,,,1.278012022,1.215610775,-26.01201966,-68.21453925,0.836294833
1,0,0,0,,,1.278522201,0.588361535,-31.94538425,-78.9429408,1.244533067
1.001133419,2.086301593,6.54282E-05,-0.002248587,,,1.279150484,1.363069103,-24.71033026,-65.66149726,0.732909689
1.002300813,2.27563022,6.49109E-05,-0.002398581,,,1.27970465,0.447652738,-33.36307457,-81.32220435,1.32431101
1.002300813,2.27563022,6.49109E-05,-0.002398581,,,1.284707476,1.027704713,-27.71729647,-71.44607307,0.971353608
1.003504223,4.252895341,1.8187E-05,-0.003370087,,,1.284912715,0.775368394,-30.10512993,-75.76128139,1.13750273
1.003504223,4.252895341,1.8187E-05,-0.003370087,,,1.289015686,4.966397113,-0.642972765,-0.605286855,-0.032871515
1.003952611,2.472966925,6.3356E-05,-0.00254467,,,1.289476052,0.326075672,-34.60848861,-83.36449082,1.398064831
1.005604409,2.670303629,6.0806E-05,-0.002680155,,,1.289648901,1.552196582,-23.08663697,-62.36512257,0.603316548
1.005604409,2.670303629,6.0806E-05,-0.002680155,,,1.290438696,0.03232005,-37.72052097,-88.29075729,1.525143743
1.00628547,2.860813756,5.74285E-05,-0.002800772,,,1.292213443,1.997512343,-19.5065712,-54.53798921,0.284987433
1.006467276,4.051305948,2.42841E-05,-0.003322033,,,1.292618372,4.389438684,-4.19822214,-11.10134833,-0.42902962
1.006966532,3.051323883,5.33064E-05,-0.002911266,,,1.292636213,4.534579181,-3.333196584,-8.446495003,-0.358762267
1.006966532,3.051323883,5.33064E-05,-0.002911266,,,1.293794256,0.158991338,-36.36173602,-86.16754013,1.479931425
1.007654413,4.493291022,1.16225E-05,-0.003412089,,,1.293941407,2.144460314,-18.39208937,-51.93138922,0.183421629
1.007761153,3.252108723,4.82804E-05,-0.003016654,,,1.294904004,1.807426978,-20.9937114,-57.89053386,0.421276809
1.008555775,3.452893562,4.2692E-05,-0.003110589,,,1.296473551,4.834698032,-1.491989065,-2.985304207,-0.151893817
1.008555775,3.452893562,4.2692E-05,-0.003110589,,,1.297930054,4.660981843,-2.570760203,-6.140974922,-0.283011252
1.008993052,3.651305059,3.67634E-05,-0.003192093,,,1.299298075,2.784409794,-13.89383209,-40.45496623,-0.213965302
1.009430329,3.849716556,3.06228E-05,-0.003262288,,,1.300087313,2.932954563,-12.9233011,-37.76463894,-0.290428228
1.009430329,3.849716556,3.06228E-05,-0.003262288,,,1.302112124,4.194321464,-5.346886778,-14.67874405,-0.497947734
1.009571729,5,1.5741E-06,-0.003447128,,,1.30220329,2.33551812,-16.9866163,-48.52358365,0.056583348
1.010688166,4.866843352,3.53667E-06,-0.003444853,,,1.30222735,3.735698027,-8.019113816,-23.10098358,-0.534949127
1.011804603,4.733686704,6.03862E-06,-0.003437652,,,1.302664217,3.584086108,-8.912544498,-25.88235591,-0.515379874
1.011804603,4.733686704,6.03862E-06,-0.003437652,,,1.304358226,2.592963623,-15.17915705,-43.90659363,-0.105149463
1.155046424,1.200567684,6.26166E-05,-0.00142205,,,1.305977723,3.931327904,-6.877489076,-19.50829238,-0.539444048
1.155046424,1.200567684,6.26166E-05,-0.00142205,,,1.307540015,3.127694292,-11.68351717,-34.22355268,-0.379627314
1.155203744,1.007147263,5.58967E-05,-0.001215796,,,1.308576679,3.389638232,-10.07421387,-29.44252441,-0.471969246
1.155361065,0.813726841,4.78146E-05,-0.001000551,,,1.352602082,1.022310835,-27.71992653,-71.49699949,1.032159169
1.155518385,0.62030642,3.84042E-05,-0.000776473,,,1.352807322,0.769974517,-30.113305,-75.80834551,1.206916022
1.155518385,0.62030642,3.84042E-05,-0.000776473,,,1.358610382,1.209207649,-26.01118752,-68.27836863,0.90052122
1.155686942,1.395834961,6.80518E-05,-0.001620981,,,1.35912056,0.581958409,-31.96118482,-78.99549305,1.333956496
1.155686942,1.395834961,6.80518E-05,-0.001620981,,,1.360336119,0.326075672,-34.57252277,-83.31152204,1.481539004
1.15673672,0.384219629,2.52185E-05,-0.000491215,,,1.360393606,1.546682448,-23.08036919,-62.42454623,0.646771619
1.15673672,0.384219629,2.52185E-05,-0.000491215,,,1.361870053,4.834698032,-1.548114565,-2.985269185,-0.159421663
1.159715074,1.591473745,7.23165E-05,-0.001810732,,,1.363132223,1.35652322,-24.7056322,-65.72851655,0.793140897
1.160046702,0.256146419,1.73469E-05,-0.000331145,,,1.363326557,4.660981843,-2.615547478,-6.140730641,-0.296775445
1.163356685,0.12807321,8.93172E-06,-0.000167394,,,1.363823336,0.447652738,-33.31652401,-81.2614469,1.418987144
1.163743207,1.787112529,7.52054E-05,-0.001990778,,,1.364654322,0.158991338,-36.3308947,-86.11186425,1.568115269
1.166666667,0,0,0,,,1.365648709,1.801912844,-20.98542892,-57.95408676,0.454876096
1.167771339,1.982751314,7.67354E-05,-0.002160951,,,1.366648521,4.966397113,-0.719865418,-0.605284737,-0.034848166
1.167771339,1.982751314,7.67354E-05,-0.002160951,,,1.370269049,4.534579181,-3.377040281,-8.44606215,-0.379308512
1.168507172,4.360134374,1.72223E-05,-0.003389075,,,1.374155208,2.333103446,-16.95543208,-48.54055022,0.068284723
1.168507172,4.360134374,1.72223E-05,-0.003389075,,,1.374557382,0.03232005,-37.68930161,-88.22208212,1.633622593
1.168938734,2.17207994,7.67643E-05,-0.002316112,,,1.374878751,4.197835109,-5.345639238,-14.61229944,-0.522534782
1.168938734,2.17207994,7.67643E-05,-0.002316112,,,1.376195182,1.99096646,-19.49597739,-54.61722151,0.316242582
1.169308052,5,8.71507E-07,-0.003444898,,,1.376310144,2.590548949,-15.15139092,-43.92780556,-0.102525977
1.170424489,4.866843352,3.26233E-06,-0.00344275,,,1.37860055,3.128129517,-11.65066402,-34.2019368,-0.394230374
1.170590532,2.369416645,7.55576E-05,-0.002467677,,,1.378744351,3.934841548,-6.860974316,-19.43972021,-0.565701929
1.171470225,4.158544982,2.42236E-05,-0.003347298,,,1.379000355,4.393609766,-4.211072583,-11.02373931,-0.454077426
1.171540925,4.733686704,6.27615E-06,-0.003435659,,,1.37935624,2.141593831,-18.35303168,-51.9477481,0.205757777
1.17224233,2.56675335,7.31327E-05,-0.002608726,,,1.379637214,3.390073457,-10.05053078,-29.4244552,-0.492218864
1.172657362,4.600530056,9.8235E-06,-0.003423576,,,1.384443977,2.933471222,-12.87740463,-37.73553236,-0.301724972
1.172657362,4.600530056,9.8235E-06,-0.003423576,,,1.384712908,2.781543312,-13.86511732,-40.48397148,-0.218286571
1.173894127,2.764090055,6.95827E-05,-0.002739113,,,1.387020881,3.584602768,-8.893956261,-25.86383483,-0.543020601
1.173894127,2.764090055,6.95827E-05,-0.002739113,,,1.388609333,3.739869109,-7.987418473,-23.0173359,-0.565491872
1.174433278,3.956955589,3.16288E-05,-0.003293819,,,1.401222256,1.279196529,-25.35564773,-67.04403187,0.878763814
1.174575189,2.954600182,6.51393E-05,-0.002854759,,,1.402054898,0.500827544,-32.75242164,-80.3352168,1.430608663
1.174575189,2.954600182,6.51393E-05,-0.002854759,,,1.415293278,4.478084957,-3.735204213,-9.477936252,-0.423111912
1.17536981,3.155385021,5.95754E-05,-0.002965631,,,1.420574451,2.06360215,-18.90835702,-53.31215958,0.275202534
1.176164432,3.35616986,5.32583E-05,-0.003065095,,,1.427189354,2.856267897,-13.35228884,-39.12191885,-0.264056054
1.176959054,3.5569547,4.63664E-05,-0.003153058,,,1.431216154,3.663253006,-8.42711488,-24.41805056,-0.570686111
1.176959054,3.5569547,4.63664E-05,-0.003153058,,,1.474144669,0.982641775,-27.99912122,-72.09427718,1.167420534
1.17739633,3.755366197,3.91752E-05,-0.003228621,,,1.474303336,0.787565857,-29.85802017,-75.42157781,1.314339811
1.17739633,3.755366197,3.91752E-05,-0.003228621,,,1.477631498,4.86722325,-1.454431812,-2.396383809,-0.141182878
1.319464124,1.285974523,7.50483E-05,-0.001508692,,,1.478757491,4.732926907,-2.270918944,-4.831673806,-0.263660024
1.319464124,1.285974523,7.50483E-05,-0.001508692,,,1.492012044,1.564737081,-22.82383595,-62.03432313,0.707786112
1.319464124,1.285974523,7.50483E-05,-0.001508692,,,1.492885646,0.25687721,-35.22757925,-84.36339557,1.679464971
1.319464124,1.285974523,7.50483E-05,-0.001508692,,,1.496074653,1.762050349,-21.20117541,-58.58467319,0.545379766
1.319464124,1.285974523,7.50483E-05,-0.001508692,,,1.496223958,0.127707814,-36.60502824,-86.52152963,1.750152506
1.319464124,1.285974523,7.50483E-05,-0.001508692,,,1.5085651,2.357231734,-16.68558586,-48.05564211,0.072075102
1.319621444,1.092554102,6.80184E-05,-0.001306604,,,1.509168396,3.156577727,-11.41576485,-33.65643482,-0.431412468
1.319621444,1.092554102,6.80184E-05,-0.001306604,,,1.509969819,3.359081095,-10.19256524,-29.96887357,-0.515564067
1.319778764,0.899133681,5.94075E-05,-0.001095478,,,1.510231036,2.556257455,-15.2962497,-44.49642021,-0.073123106
1.319778764,0.899133681,5.94075E-05,-0.001095478,,,1.511873624,1.107333523,-26.81471412,-69.930273,1.101079904
1.319936085,0.70571326,4.9244E-05,-0.000875478,,,1.512240719,0.656000549,-31.12164454,-77.62452415,1.448401036
1.319936085,0.70571326,4.9244E-05,-0.000875478,,,1.51288103,4.971693533,-0.84368658,-0.50981138,-0.032550465
1.320093405,0.512292838,3.75765E-05,-0.000646763,,,1.513257934,4.175907479,-5.507724663,-15.00981243,-0.575510216
1.320093405,0.512292838,3.75765E-05,-0.000646763,,,1.515486157,4.660981843,-2.727742888,-6.140210469,-0.328465886
1.320093405,0.512292838,3.75765E-05,-0.000646763,,,1.516246348,3.972592671,-6.654862742,-18.73847129,-0.611406931
1.320093405,0.512292838,3.75765E-05,-0.000646763,,,1.530135414,1.431744259,-23.92000985,-64.32113942,0.843785914
1.320093405,0.512292838,3.75765E-05,-0.000646763,,,1.53180772,0.326075672,-34.47672096,-83.16843485,1.687910798
1.320093405,0.512292838,3.75765E-05,-0.000646763,,,1.539531331,0.027225828,-37.67697142,-88.15677891,1.853529285
1.323403387,0.384219629,2.91325E-05,-0.000490586,,,1.539534778,1.888253627,-20.16288282,-56.3448328,0.458894604
1.323403387,0.384219629,2.91325E-05,-0.000490586,,,1.547769099,1.166290895,-26.24813537,-68.89145316,1.081885538
1.323492257,1.481613308,8.08142E-05,-0.001703691,,,1.548407832,0.587657369,-31.77882034,-78.7503126,1.536181072
1.323492257,1.481613308,8.08142E-05,-0.001703691,,,1.549241226,2.224926842,-17.6076834,-50.39111311,0.183625049
1.326713369,0.256146419,2.00372E-05,-0.000330705,,,1.549255686,3.023174706,-12.22114152,-36.0671445,-0.369492974
1.326713369,0.256146419,2.00372E-05,-0.000330705,,,1.55110988,3.491692033,-9.398440665,-27.54125835,-0.569016959
1.327520389,1.677252092,8.49877E-05,-0.001889097,,,1.553095581,2.685398189,-14.39562805,-42.16217046,-0.16074596
1.327520389,1.677252092,8.49877E-05,-0.001889097,,,1.553413757,4.613392125,-3.034260964,-7.006883518,-0.37249922
1.329044375,5,-2.50092E-07,-0.003442174,,,1.554240788,4.311910623,-4.754813002,-12.51628619,-0.543576196
1.329044375,5,-2.50092E-07,-0.003442174,,,1.561154864,3.841515928,-7.395187043,-21.1381626,-0.62959364
1.330023351,0.12807321,1.03162E-05,-0.000167164,,,1.562221772,1.366605646,-24.4561163,-65.42721675,0.921700326
1.330023351,0.12807321,1.03162E-05,-0.000167164,,,1.564013299,0.370869171,-33.98864449,-82.38747007,1.699674781
1.330160811,4.866843352,2.62294E-06,-0.003440172,,,1.576919075,1.949440625,-19.6547714,-55.24713841,0.421949842
1.330160811,4.866843352,2.62294E-06,-0.003440172,,,1.583962705,2.159228054,-18.06216076,-51.53871406,0.246599854
1.331277248,4.733686704,6.20186E-06,-0.003433207,,,1.584813293,4.383071003,-4.367807141,-11.21298988,-0.521157338
1.331277248,4.733686704,6.20186E-06,-0.003433207,,,1.585263621,2.958140015,-12.60888442,-37.23383992,-0.336127487
1.331548522,1.872890876,8.75796E-05,-0.002064743,,,1.588339182,3.557945577,-9.004509072,-26.32486746,-0.596894099
1.331548522,1.872890876,8.75796E-05,-0.002064743,,,1.588876974,2.748344834,-13.95542673,-41.01700665,-0.202990893
1.332393684,4.600530056,1.03831E-05,-0.003421231,,,1.597046082,3.776975902,-7.756629669,-22.31685894,-0.637198515
1.332393684,4.600530056,1.03831E-05,-0.003421231,,,1.626793169,4.86722325,-1.608708578,-2.396288644,-0.155001484
1.333333333,0,0,0,,,1.630436825,0.870913382,-28.93241513,-73.87791847,1.403549036
1.333333333,0,0,0,,,1.642519077,1.259192298,-25.3311963,-67.22176863,1.076351176
1.333510121,4.467373408,1.50649E-05,-0.003404204,,,1.643951909,0.466989453,-32.93914667,-80.69789376,1.731147015
1.333510121,4.467373408,1.50649E-05,-0.003404204,,,1.656663956,4.509698482,-3.697280915,-8.897322615,-0.469257884
1.333510121,4.467373408,1.50649E-05,-0.003404204,,,1.662472118,1.649376732,-21.97129248,-60.44852781,0.731924562
1.333510121,4.467373408,1.50649E-05,-0.003404204,,,1.664317134,0.127707814,-36.51874645,-86.35626492,1.971220204
1.333510121,4.467373408,1.50649E-05,-0.003404204,,,1.671432654,2.049059346,-18.81024234,-53.43687236,0.370510194
1.333510121,4.467373408,1.50649E-05,-0.003404204,,,1.677262617,3.25619416,-10.73506294,-31.80572486,-0.507139804
1.335576654,2.06852966,8.8619E-05,-0.002230463,,,1.678070317,2.851520405,-13.22696822,-39.1269033,-0.273107507
1.335576654,2.06852966,8.8619E-05,-0.002230463,,,1.681867417,2.450212204,-15.89593847,-46.31789303,0.028223683
1.335576654,2.06852966,8.8619E-05,-0.002230463,,,1.684600788,3.669855671,-8.346814868,-24.26531219,-0.648113154
1.335576654,2.06852966,8.8619E-05,-0.002230463,,,1.692074498,4.084420609,-6.056345106,-16.67726749,-0.654590131
1.335576654,2.06852966,8.8619E-05,-0.002230463,,,1.705825948,4.971693533,-1.076034286,-0.509817411,-0.036648523
1.335576654,2.06852966,8.8619E-05,-0.002230463,,,1.706974571,4.834698032,-1.887603888,-2.984935239,-0.19843465
1.336473174,4.265784015,2.29025E-05,-0.003368732,,,1.714042029,0.96280963,-27.98569862,-72.23976653,1.40526648
1.336473174,4.265784015,2.29025E-05,-0.003368732,,,1.714203884,0.763812974,-29.90057535,-75.62149444,1.57870211
1.337228452,2.265866365,8.79739E-05,-0.002387433,,,1.744902171,4.787108314,-2.202831893,-3.847492184,-0.253928487
1.337228452,2.265866365,8.79739E-05,-0.002387433,,,1.749937504,1.021767001,-27.39917584,-71.20176421,1.385470153
1.33888025,2.46320307,8.58747E-05,-0.002533981,,,1.750370997,0.695469794,-30.54459827,-76.74331446,1.675358418
1.33888025,2.46320307,8.58747E-05,-0.002533981,,,1.75063043,1.541228085,-22.78720218,-62.26338659,0.888990074
1.339436227,4.064194623,3.13475E-05,-0.00332155,,,1.753559288,0.158991338,-36.12733211,-85.73840053,2.073051229
1.339436227,4.064194623,3.13475E-05,-0.00332155,,,1.754774692,1.742507058,-21.12530411,-58.75867378,0.695583153
1.340532048,2.660539775,8.24174E-05,-0.002669954,,,1.756964696,0.027225828,-37.57316029,-87.92521934,2.151559471
1.340532048,2.660539775,8.24174E-05,-0.002669954,,,1.766690402,3.152031433,-11.31081779,-33.66959118,-0.46542159
1.342183846,2.85787648,7.77175E-05,-0.00279521,,,1.767507932,3.35860482,-10.09310195,-29.9222595,-0.568929772
1.342183846,2.85787648,7.77175E-05,-0.00279521,,,1.773412765,2.345199757,-16.55334632,-48.13767736,0.136884338
1.342183846,2.85787648,7.77175E-05,-0.00279521,,,1.775112183,2.548225602,-15.14753425,-44.52292364,-0.037471371
1.342183846,2.85787648,7.77175E-05,-0.00279521,,,1.782716788,1.476089473,-23.30752069,-63.36605307,0.974703442
1.342183846,2.85787648,7.77175E-05,-0.00279521,,,1.785545164,4.193569721,-5.487890448,-14.67348336,-0.656806822
1.342183846,2.85787648,7.77175E-05,-0.00279521,,,1.785764868,0.203784837,-35.62155762,-84.95599431,2.088427578
1.342399279,3.86260523,4.00869E-05,-0.003262626,,,1.788593641,3.986168586,-6.602234545,-18.46827641,-0.697206021
1.342399279,3.86260523,4.00869E-05,-0.003262626,,,1.792158989,1.803694056,-20.59878612,-57.6628191,0.655857522
1.342978467,3.058661319,7.17509E-05,-0.002911531,,,1.798811233,1.147463906,-26.19195707,-69.00831498,1.310518357
1.342978467,3.058661319,7.17509E-05,-0.002911531,,,1.800085398,0.550336979,-31.96543786,-79.13937916,1.852427974
1.343773089,3.259446159,6.48154E-05,-0.003016498,,,1.802698338,3.086996741,-11.68151009,-34.83395312,-0.430303765
1.343773089,3.259446159,6.48154E-05,-0.003016498,,,1.804699634,4.643994826,-3.063154144,-6.447460414,-0.401428766
1.344567711,3.460230998,5.71027E-05,-0.003110004,,,1.804737235,3.424858363,-9.696776722,-28.70890858,-0.603341667
1.344567711,3.460230998,5.71027E-05,-0.003110004,,,1.808134243,2.27950097,-16.98951958,-49.28206548,0.205716334
1.345362332,3.661015837,4.88284E-05,-0.003191964,,,1.810893576,2.611172246,-14.69528029,-43.3808955,-0.084498938
1.345362332,3.661015837,4.88284E-05,-0.003191964,,,1.812979151,1.343831949,-24.42119694,-65.62333785,1.128592832
1.345362332,3.661015837,4.88284E-05,-0.003191964,,,1.815383398,0.337820058,-34.16556168,-82.68578757,2.035591888
1.345362332,3.661015837,4.88284E-05,-0.003191964,,,1.816117669,4.264730102,-5.118001306,-13.37018857,-0.641341015
1.345362332,3.661015837,4.88284E-05,-0.003191964,,,1.82448486,3.921628561,-6.951191764,-19.64481782,-0.710508581
1.345362332,3.661015837,4.88284E-05,-0.003191964,,,1.83548052,4.418211612,-4.308515981,-10.56443164,-0.572498782
1.474429919,1.175194306,8.02794E-05,-0.001392454,,,1.837830119,1.936385729,-19.51344591,-55.30712758,0.547107735
1.474429919,1.175194306,8.02794E-05,-0.001392454,,,1.844734971,2.142039815,-17.95423649,-51.68729557,0.347728948
1.474587239,0.981773884,7.13456E-05,-0.00118535,,,1.846164538,2.951136839,-12.48446177,-37.26778248,-0.342759132
1.474744559,0.788353463,6.06432E-05,-0.000969331,,,1.846264588,4.966397113,-1.292828117,-0.605270647,-0.04681125
1.474901879,0.594933042,4.8215E-05,-0.000744561,,,1.849706698,2.745475154,-13.78250795,-40.95917535,-0.188934757
1.474901879,0.594933042,4.8215E-05,-0.000744561,,,1.851893586,3.566968736,-8.879902118,-26.11243488,-0.66310257
1.476940197,5,-1.71185E-06,-0.003439152,,,1.860428938,3.781683609,-7.702596179,-22.19653958,-0.712226388
1.478056633,4.866843352,1.66304E-06,-0.003437302,,,1.861153888,0.849954955,-28.92977848,-74.01636645,1.656155017
1.47917307,4.733686704,5.8199E-06,-0.003430466,,,1.891288818,4.909902889,-1.676579619,-1.624658395,-0.12445019
1.480289506,4.600530056,1.06414E-05,-0.003418599,,,1.903765763,0.919943834,-28.21500647,-72.78425528,1.632779794
1.480289506,4.600530056,1.06414E-05,-0.003418599,,,1.904088226,0.76882409,-29.68167024,-75.3439044,1.778741357
1.488477602,1.369895887,8.83809E-05,-0.001591581,,,1.91123141,1.628674481,-21.89520066,-60.61353059,0.90525062
1.488477602,1.369895887,8.83809E-05,-0.001591581,,,1.91504602,0.03232005,-37.4293884,-87.64698513,2.373606631
1.490070054,0.384219629,3.31553E-05,-0.000489851,,,1.923823574,1.108107785,-26.42780249,-69.55988227,1.46274139
1.490070054,0.384219629,3.31553E-05,-0.000489851,,,1.924935973,3.253778992,-10.6221449,-31.77709254,-0.537642748
1.492505735,1.565534671,9.41153E-05,-0.001782331,,,1.925248006,0.563704284,-31.72255215,-78.77576956,1.990543397
1.493380036,0.256146419,2.28043E-05,-0.000330193,,,1.927312684,4.693782693,-2.906590472,-5.540941756,-0.377819764
1.496533867,1.761173455,9.80397E-05,-0.00196344,,,1.936594405,2.44056425,-15.73898413,-46.34704002,0.090792978
1.496690018,0.12807321,1.17413E-05,-0.000166895,,,1.942150185,1.362115505,-24.12756669,-65.18903942,1.211583436
1.5,0,0,0,,,1.945036409,0.288807525,-34.59270606,-83.34969469,2.242302248
1.500562,1.95681224,0.000100177,-0.002134737,,,1.949321443,1.551347789,-22.49824258,-61.91847167,1.013706299
1.500562,1.95681224,0.000100177,-0.002134737,,,1.953277582,0.085494857,-36.81220076,-86.71630425,2.396178467
1.507408254,2.160721058,0.000100742,-0.002302613,,,1.953969091,4.099441883,-6.026287856,-16.38224476,-0.72809019
1.507408254,2.160721058,0.000100742,-0.002302613,,,1.955610678,1.701310171,-21.25291286,-59.31344843,0.856160279
1.508851548,2.956647526,8.48427E-05,-0.002851271,,,1.959073549,4.916767303,-1.728447899,-1.500415056,-0.119275886
1.508851548,2.956647526,8.48427E-05,-0.002851271,,,1.967128646,4.401725603,-4.471909174,-10.8610914,-0.615999322
1.509060052,2.358057763,9.91932E-05,-0.002454665,,,1.967681349,3.176575667,-11.04636917,-33.15643344,-0.494980964
1.509646169,3.157432366,7.74593E-05,-0.002962005,,,1.968944426,1.898543296,-19.67121983,-55.86626719,0.652112824
1.510440791,3.358217205,6.9066E-05,-0.003061332,,,1.969131246,3.33242923,-10.14713055,-30.33930497,-0.584092091
1.51071185,2.555394468,9.6034E-05,-0.00259624,,,1.974268111,0.768688677,-29.61552815,-75.26727072,1.856558156
1.510809172,4.376662934,2.01855E-05,-0.00338667,,,1.977784356,2.978820137,-12.21995369,-36.712836,-0.360382225
1.510809172,4.376662934,2.01855E-05,-0.00338667,,,1.977812615,2.362572569,-16.24001421,-47.70153957,0.177391793
1.511235413,3.559002044,5.989E-05,-0.00314915,,,1.977876051,2.16456278,-17.6558055,-51.19526215,0.376764616
1.511235413,3.559002044,5.989E-05,-0.00314915,,,1.97907085,2.515288835,-15.18995246,-44.99343954,0.031190165
1.512363648,2.752731173,9.13827E-05,-0.002727186,,,1.982366242,2.712790823,-13.88362712,-41.47454183,-0.146192951
1.512363648,2.752731173,9.13827E-05,-0.002727186,,,1.982601752,0.90992123,-28.23210777,-72.86827201,1.724300967
1.513772225,4.175073541,2.96913E-05,-0.003346036,,,1.984099271,3.538933878,-8.989844417,-26.59116022,-0.677908589
1.516735278,3.973484149,3.9692E-05,-0.003293636,,,1.984366278,0.563590215,-31.67086607,-78.70745109,2.062376301
1.519698331,3.771894756,4.98415E-05,-0.003229465,,,1.984413321,4.699565152,-2.93382554,-5.4356914,-0.381814974
1.519698331,3.771894756,4.98415E-05,-0.003229465,,,1.985927599,4.973261528,-1.452636384,-0.481601088,-0.040015091
1.624836018,5,-3.62736E-06,-0.003435582,,,1.990233593,1.099664923,-26.43619109,-69.63381523,1.533964602
1.625952455,4.866843352,3.10407E-07,-0.003433899,,,1.990262014,4.183917075,-5.599864303,-14.83622796,-0.716961903
1.627068892,4.733686704,5.10471E-06,-0.003427206,,,1.995139995,3.81667375,-7.499901059,-21.53651182,-0.74829459
1.627068892,4.733686704,5.10471E-06,-0.003427206,,,1.996575912,4.02282578,-6.428143386,-17.77664101,-0.750555081
1.629395713,1.064414088,8.41096E-05,-0.001273186,,,2.004154681,0.288693456,-34.54808302,-83.27584734,2.32220701
1.629395713,1.064414088,8.41096E-05,-0.001273186,,,2.008560203,1.353672643,-24.12942327,-65.26754049,1.274683534
1.629553033,0.870993666,7.30241E-05,-0.00106119,,,2.010169763,0.839796937,-28.88241223,-74.02403743,1.825210013
1.629710353,0.677573245,5.99859E-05,-0.000840405,,,2.023457467,0.085359444,-36.76813287,-86.62393951,2.497652369
1.629710353,0.677573245,5.99859E-05,-0.000840405,,,2.024229283,4.407508062,-4.475608125,-10.75308967,-0.626498216
1.643443396,1.259115669,9.41594E-05,-0.001477347,,,2.028157433,1.541325184,-22.49588837,-62.01590789,1.081354343
1.644878528,0.466859832,4.40777E-05,-0.000589977,,,2.046092512,1.893241097,-19.62854533,-55.89179081,0.700035046
1.65749108,1.45381725,0.000102319,-0.001672219,,,2.047193934,1.695015878,-21.20319628,-59.33784208,0.922119748
1.65749108,1.45381725,0.000102319,-0.001672219,,,2.048221318,2.978621585,-12.16811239,-36.68268702,-0.356770268
1.657588558,4.509819582,1.47975E-05,-0.003403884,,,2.050307666,3.328760542,-10.1244642,-30.37789519,-0.588880804
1.660046702,0.256146419,2.5656E-05,-0.000329601,,,2.051297764,3.176339964,-10.99455694,-33.12725057,-0.4972544
1.660046702,0.256146419,2.5656E-05,-0.000329601,,,2.052480825,3.535843441,-8.980950086,-26.6288826,-0.686659332
1.661519213,1.649456035,0.000107843,-0.001858673,,,2.052803204,2.712592271,-13.82300773,-41.43707897,-0.134537092
1.663356685,0.12807321,1.32111E-05,-0.000166586,,,2.055024137,2.159260581,-17.6136195,-51.22784058,0.414619158
1.665547345,1.845094819,0.000111341,-0.002035437,,,2.058046745,4.190781489,-5.585703939,-14.70569722,-0.732046545
1.665547345,1.845094819,0.000111341,-0.002035437,,,2.062687265,2.515053132,-15.1116357,-44.94241354,0.052572741
1.666666667,0,0,0,,,2.06352155,3.813583314,-7.5073546,-21.58028692,-0.762265611
1.6723936,2.049003638,0.000113068,-0.002209128,,,2.069344591,0.032184638,-37.33591669,-87.43776594,2.600256671
1.67551925,3.055418573,9.105E-05,-0.002904007,,,2.069395871,2.356278277,-16.19199277,-47.74685989,0.213594641
1.67551925,3.055418573,9.105E-05,-0.002904007,,,2.072540796,4.671118526,-3.17167209,-5.951624304,-0.425761832
1.676313871,3.256203412,8.21175E-05,-0.003009116,,,2.077390652,0.549801916,-31.72621332,-78.8212939,2.190232312
1.677108493,3.456988251,7.21535E-05,-0.003102766,,,2.077752332,4.019157093,-6.454808212,-17.83363084,-0.770342306
1.677108493,3.456988251,7.21535E-05,-0.003102766,,,2.078354161,4.820876282,-2.403215921,-3.234522516,-0.255875271
1.67903135,2.851502219,9.91029E-05,-0.002785563,,,2.081650655,1.612357583,-21.84240007,-60.73484496,1.039612366
1.679239854,2.252912456,0.000112698,-0.002371915,,,2.089728807,3.249874602,-10.54782104,-31.7864697,-0.544709493
1.679239854,2.252912456,0.000112698,-0.002371915,,,2.092688652,0.337284995,-33.9520805,-82.34839468,2.4026122
1.680891652,2.450249161,0.000110064,-0.002519005,,,2.095605419,0.694803661,-30.23056288,-76.36423474,2.069740141
1.68254345,2.647585866,0.000105672,-0.002655564,,,2.100975529,4.868466,-2.183231912,-2.37325805,-0.195283196
1.68254345,2.647585866,0.000105672,-0.002655564,,,2.103321682,4.445335313,-4.335302532,-10.06030902,-0.621062056
1.685571411,3.669880963,6.10427E-05,-0.003189272,,,2.104108117,4.138500702,-5.859751046,-15.65488348,-0.757100647
1.688108224,4.28595246,2.6456E-05,-0.003366156,,,2.110319781,1.107861091,-26.22894313,-69.35764124,1.640717233
1.688108224,4.28595246,2.6456E-05,-0.003366156,,,2.111794075,2.434034255,-15.61176382,-46.34142186,0.148052912
1.691071276,4.084363068,3.77054E-05,-0.003320324,,,2.116515879,4.977475992,-1.628617571,-0.405599661,-0.035878735
1.694034329,3.882773675,4.92908E-05,-0.003262686,,,2.11824755,4.077095295,-6.16873646,-16.772669,-0.772368638
1.694034329,3.882773675,4.92908E-05,-0.003262686,,,2.1244877,1.304229134,-24.43425646,-65.98904294,1.429393407
1.77273184,5,-6.04147E-06,-0.003431393,,,2.125848324,0.754703979,-29.60039542,-75.317233,2.043372953
1.773848277,4.866843352,-1.47249E-06,-0.003429891,,,2.130999289,0.203118704,-35.38141844,-84.52180108,2.566949831
1.773848277,4.866843352,-1.47249E-06,-0.003429891,,,2.137753717,0.972463014,-27.4684828,-71.62372675,1.820426783
1.784361507,0.95363387,8.63203E-05,-0.00115099,,,2.149569659,4.29849807,-5.085231627,-12.73429196,-0.71322677
1.784361507,0.95363387,8.63203E-05,-0.00115099,,,2.160976513,0.913391573,-28.00837828,-72.59407049,1.911125127
1.784518827,0.760213448,7.28293E-05,-0.000934235,,,2.169653776,0.158325205,-35.84761784,-85.20586301,2.658345179
1.784518827,0.760213448,7.28293E-05,-0.000934235,,,2.170533001,1.426785485,-23.30780024,-63.83507096,1.325037753
1.798409191,1.148335451,9.85695E-05,-0.001360056,,,2.17264999,3.55247247,-8.843723574,-26.29170177,-0.706809973
1.799687002,0.549500036,5.6238E-05,-0.00068813,,,2.176562215,2.950205496,-12.2370311,-37.12267325,-0.321812541
1.804367943,4.64297623,8.08052E-06,-0.003415191,,,2.178650533,4.894346951,-2.158547673,-1.90538937,-0.164588362
1.812456874,1.343037032,0.000108743,-0.001559953,,,2.180104375,2.744543811,-13.50273771,-40.78715684,-0.138872275
1.814855177,0.338786623,3.6848E-05,-0.000432053,,,2.181185343,3.767187342,-7.725952109,-22.39852317,-0.774741604
1.826504558,1.537738614,0.000116779,-0.001750512,,,2.188370929,4.254457676,-5.315952736,-13.53363074,-0.740217163
1.826504558,1.537738614,0.000116779,-0.001750512,,,2.19541165,4.564256306,-3.820887907,-7.89217529,-0.549059911
1.830023351,0.12807321,1.47295E-05,-0.000166234,,,2.199707571,1.91151478,-19.31126878,-55.42626697,0.768563904
1.830023351,0.12807321,1.47295E-05,-0.000166234,,,2.2017361,0.465913204,-32.48217436,-80.05169045,2.431359945
1.830532691,1.733377398,0.000121911,-0.001932617,,,2.204066674,3.406811067,-9.609288126,-28.91135694,-0.639169086
1.830532691,1.733377398,0.000121911,-0.001932617,,,2.206612423,2.117168866,-17.75399201,-51.83220464,0.53266213
1.833333333,0,0,0,,,2.214030793,3.085837255,-11.40432789,-34.67521025,-0.426669499
1.834887609,4.419109108,2.01104E-05,-0.003386116,,,2.215594729,1.486621899,-22.74050034,-62.75487335,1.290405828
1.837378945,1.937286217,0.000125079,-0.002111997,,,2.219250627,0.830775505,-28.74713313,-73.9111235,2.068666942
1.842186952,3.154189619,9.62186E-05,-0.002953288,,,2.222226031,2.61001276,-14.32485114,-43.14445359,0.00288285
1.842186952,3.154189619,9.62186E-05,-0.002953288,,,2.223814299,3.903581264,-7.034787031,-19.91311364,-0.800462045
1.842981574,3.354974458,8.56078E-05,-0.00305273,,,2.229886236,0.027111759,-37.28418042,-87.27622506,2.847527406
1.842981574,3.354974458,8.56078E-05,-0.00305273,,,2.237274334,3.340358972,-9.952330875,-30.09458526,-0.601492928
1.844225199,2.141195036,0.000125874,-0.002280602,,,2.237291149,4.682646923,-3.287510384,-5.739964964,-0.440600269
1.845699052,2.950273266,0.000105932,-0.002840526,,,2.242682558,1.772730677,-20.34860076,-57.78904832,0.9626706
1.849211152,2.746356913,0.000114094,-0.002716154,,,2.246404412,3.14778151,-11.02271926,-33.54812319,-0.470796375
1.851071454,2.345103854,0.000124373,-0.002438246,,,2.250818014,4.150324293,-5.836740817,-15.42306204,-0.785641471
1.851071454,2.345103854,0.000124373,-0.002438246,,,2.256449838,0.586291195,-31.16974177,-77.96181687,2.380453451
1.851444492,3.56786717,7.35551E-05,-0.003145397,,,2.257926742,3.952387363,-6.793254456,-19.0199438,-0.808103393
1.852723252,2.542440559,0.000120471,-0.002580325,,,2.258657812,2.24853759,-16.74493118,-49.48265621,0.407486238
1.852723252,2.542440559,0.000120471,-0.002580325,,,2.259912517,4.73023664,-3.082943406,-4.876176879,-0.389907374
1.85990741,3.780759882,6.0569E-05,-0.003225003,,,2.262728818,4.098597485,-6.086874854,-16.36223367,-0.798244301
1.865407275,4.195241986,3.40107E-05,-0.003342517,,,2.263592724,2.541763917,-14.72980717,-44.31873174,0.086422628
1.865407275,4.195241986,3.40107E-05,-0.003342517,,,2.268690685,4.4523258,-4.413691651,-9.925857187,-0.650808068
1.868370328,3.993652594,4.70489E-05,-0.003291457,,,2.269101305,1.179533425,-25.38427509,-67.93848227,1.712646262
1.868370328,3.993652594,4.70489E-05,-0.003291457,,,2.271708279,1.703100817,-20.87260882,-58.96007048,1.068553665
1.920627662,5,-8.99832E-06,-0.003426502,,,2.272055305,0.369502998,-33.44236085,-81.55028931,2.620333115
1.920627662,5,-8.99832E-06,-0.003426502,,,2.274004715,0.127172751,-36.11363236,-85.55680994,2.83859344
1.920627662,5,-8.99832E-06,-0.003426502,,,2.285326262,4.23875565,-5.427239373,-13.81042378,-0.765867438
1.920627662,5,-8.99832E-06,-0.003426502,,,2.286692743,0.646191513,-30.5217189,-76.91488026,2.354506265
1.939327301,0.842853652,8.66793E-05,-0.001025979,,,2.294373296,2.314037826,-16.24269936,-48.300211,0.349152806
1.939327301,0.842853652,8.66793E-05,-0.001025979,,,2.295158699,4.977475992,-1.920343542,-0.405591023,-0.038618476
1.939327301,0.842853652,8.66793E-05,-0.001025979,,,2.301521386,4.787484731,-2.859125123,-3.838205906,-0.323743192
1.939327301,0.842853652,8.66793E-05,-0.001025979,,,2.307491955,4.408285406,-4.645472917,-10.72483371,-0.687227089
1.939327301,0.842853652,8.66793E-05,-0.001025979,,,2.310709792,0.324709498,-33.89084501,-82.23233861,2.717764425
1.939327301,0.842853652,8.66793E-05,-0.001025979,,,2.316755552,4.894346951,-2.364975872,-1.905226206,-0.173460548
1.951147328,4.776132878,7.05568E-08,-0.003420438,,,2.328416698,3.240766551,-10.44021677,-31.8386609,-0.531741018
1.951147328,4.776132878,7.05568E-08,-0.003420438,,,2.329784567,3.640697232,-8.324722454,-24.64548349,-0.752857313
1.953374985,1.037555233,0.000101385,-0.001239812,,,2.335858118,1.584902968,-21.76313084,-60.91900947,1.266100555
1.953374985,1.037555233,0.000101385,-0.001239812,,,2.341196103,3.996121429,-6.582767109,-18.21032925,-0.820518832
1.954495476,0.632140239,6.95785E-05,-0.000784245,,,2.342646984,2.849647061,-12.69695653,-38.80534147,-0.200951111
1.954495476,0.632140239,6.95785E-05,-0.000784245,,,2.343142192,1.065173242,-26.35113514,-69.77756613,1.928945655
1.967422669,1.232256815,0.000113831,-0.001444598,,,2.343596075,0.746886792,-29.43800928,-75.14172004,2.311785447
1.967422669,1.232256815,0.000113831,-0.001444598,,,2.354153835,4.573161352,-3.920512301,-7.725648528,-0.569153276
1.969663651,0.421426826,4.93875E-05,-0.000532511,,,2.357594865,1.265487993,-24.49656823,-66.35541912,1.692301446
1.969663651,0.421426826,4.93875E-05,-0.000532511,,,2.366364988,1.006101801,-26.87976225,-70.74313042,2.027178818
1.981470352,1.426958396,0.000123942,-0.001640166,,,2.374089826,0.498951994,-31.95665101,-79.2363198,2.628878811
1.981470352,1.426958396,0.000123942,-0.001640166,,,2.374142546,2.424409911,-15.39276226,-46.28704024,0.258637788
1.981666994,4.552265756,1.22127E-05,-0.003400042,,,2.37741623,4.357676643,-4.918652183,-11.63985213,-0.72926399
1.981666994,4.552265756,1.22127E-05,-0.003400042,,,2.37803215,0.902447838,-27.86115161,-72.47442231,2.167690233
1.984831825,0.210713413,2.61603E-05,-0.000271018,,,2.381007885,4.629655577,-3.688515631,-6.699040033,-0.518642881
1.984831825,0.210713413,2.61603E-05,-0.000271018,,,2.383052163,0.25580096,-34.57924623,-83.25263723,2.888701097
1.995518036,1.621659977,0.000131669,-0.001826348,,,2.399329148,1.999032806,-18.40020957,-53.68706496,0.785815145
1.995518036,1.621659977,0.000131669,-0.001826348,,,2.400215207,4.520880565,-4.197775609,-8.673433248,-0.622175584
1.995518036,1.621659977,0.000131669,-0.001826348,,,2.400793243,4.73023664,-3.252808576,-4.874376235,-0.408191233
1.995518036,1.621659977,0.000131669,-0.001826348,,,2.402656592,1.325324407,-23.90581143,-65.27274454,1.658868293
1.995518036,1.621659977,0.000131669,-0.001826348,,,2.407324775,3.520932339,-8.899819129,-26.77282424,-0.700440434
1.995518036,1.621659977,0.000131669,-0.001826348,,,2.409991478,0.570060254,-31.1707322,-77.99331774,2.59883049
2,0,0,0,,,2.416031676,3.739962663,-7.802185745,-22.82517596,-0.790358935
2,0,0,0,,,2.41997695,0.445777187,-32.47258034,-80.04408872,2.74929249
2,0,0,0,,,2.420499075,4.868466,-2.646414094,-2.372547343,-0.219991853
2,0,0,0,,,2.428866225,2.955762023,-11.98106378,-36.85767662,-0.279838341
2.00236429,1.825568796,0.000136569,-0.002011279,,,2.429991987,4.973261528,-2.173920749,-0.481554409,-0.04805438
2.00236429,1.825568796,0.000136569,-0.002011279,,,2.432479577,2.745966841,-13.2441881,-40.57024339,-0.071382457
2.008854654,3.252960665,0.000100221,-0.002998966,,,2.438632949,4.255594952,-5.406067124,-13.48741686,-0.785507025
2.008854654,3.252960665,0.000100221,-0.002998966,,,2.440532435,3.454480243,-9.223423701,-27.95067739,-0.662380643
2.008854654,3.252960665,0.000100221,-0.002998966,,,2.442097891,0.127172751,-35.97053704,-85.26800813,3.097336662
2.008854654,3.252960665,0.000100221,-0.002998966,,,2.446414007,4.604740658,-3.866025993,-7.149349849,-0.553360616
2.008854654,3.252960665,0.000100221,-0.002998966,,,2.447319601,0.027111759,-37.117506,-86.90028596,3.191413048
2.008854654,3.252960665,0.000100221,-0.002998966,,,2.448665541,0.719304355,-29.59201619,-75.43727268,2.475274404
2.009210545,2.029477615,0.000138814,-0.002185566,,,2.44912463,4.172106416,-5.783337051,-15.00022126,-0.812505234
2.009210545,2.029477615,0.000138814,-0.002185566,,,2.450144119,3.788768762,-7.556999085,-21.93382581,-0.805315021
2.01218666,4.328398634,2.67443E-05,-0.003365125,,,2.455890182,4.709248761,-3.41415213,-5.253979671,-0.440456725
2.01218666,4.328398634,2.67443E-05,-0.003365125,,,2.457919507,4.55245987,-4.106959394,-8.09756604,-0.604034436
2.012366754,3.049044312,0.00011174,-0.002891928,,,2.461035434,4.120379608,-6.018453669,-15.93571975,-0.824485266
2.012366754,3.049044312,0.00011174,-0.002891928,,,2.461239844,3.017706278,-11.5909543,-35.73397839,-0.329006001
2.015878854,2.845127959,0.000121655,-0.002773227,,,2.463879881,4.425463154,-4.667827569,-10.40211415,-0.702670777
2.015878854,2.845127959,0.000121655,-0.002773227,,,2.47384627,2.677717998,-13.62666403,-41.73751109,0.016205648
2.016056799,2.233386434,0.000138474,-0.002349021,,,2.475596014,4.84747812,-2.825289673,-2.751583473,-0.255862606
2.016056799,2.233386434,0.000138474,-0.002349021,,,2.476126018,0.553539333,-31.26820062,-78.15698283,2.706667295
2.017317572,3.465853377,8.73785E-05,-0.003097745,,,2.480471723,1.460207258,-22.62805488,-62.85936351,1.553817643
2.017317572,3.465853377,8.73785E-05,-0.003097745,,,2.482181393,0.324709498,-33.71979307,-81.94068826,2.966857554
2.019390954,2.641211606,0.000129701,-0.002643017,,,2.482283709,0.482431072,-32.01287658,-79.32820455,2.796080731
2.019390954,2.641211606,0.000129701,-0.002643017,,,2.485551275,3.328991314,-9.851052535,-30.17303747,-0.57697677
2.022903054,2.437295252,0.000135644,-0.002501461,,,2.489795327,3.869631319,-7.16625009,-20.46278747,-0.824384185
2.022903054,2.437295252,0.000135644,-0.002501461,,,2.4931496,1.140377236,-25.4593711,-68.27875557,1.993074629
2.022903054,2.437295252,0.000135644,-0.002501461,,,2.493209596,0.920527049,-27.54155229,-71.98825537,2.279651881
2.022903054,2.437295252,0.000135644,-0.002501461,,,2.494501467,3.140208116,-10.86846107,-33.53277308,-0.428971828
2.022903054,2.437295252,0.000135644,-0.002501461,,,2.49450279,4.012960732,-6.50672987,-17.87302647,-0.836895843
2.022903054,2.437295252,0.000135644,-0.002501461,,,2.495398109,4.948346608,-2.403633035,-0.93046848,-0.093231896
2.02578049,3.678746089,7.32779E-05,-0.003183513,,,2.500898818,1.885937764,-19.13158273,-55.51870417,1.001672702
2.02578049,3.678746089,7.32779E-05,-0.003183513,,,2.504376086,0.705387428,-29.66564634,-75.57628485,2.563427819
2.034243408,3.891638801,5.8323E-05,-0.003256156,,,2.507942447,2.095725194,-17.54360595,-51.87794357,0.73224025
2.034243408,3.891638801,5.8323E-05,-0.003256156,,,2.512488944,4.452064992,-4.585525222,-9.915972682,-0.691609437
2.042455782,4.894044658,-7.23397E-06,-0.003421429,,,2.520717611,1.070252944,-26.07606405,-69.42003483,2.116032223
2.042455782,4.894044658,-7.23397E-06,-0.003421429,,,2.529924539,1.816307905,-19.63560859,-56.6804982,1.11641269
2.042706326,4.104531513,4.29758E-05,-0.003315587,,,2.531204326,4.975085081,-2.347450699,-0.448677957,-0.046294705
2.042706326,4.104531513,4.29758E-05,-0.003315587,,,2.534667484,0.355586071,-33.32508845,-81.33472108,3.011578535
2.042706326,4.104531513,4.29758E-05,-0.003315587,,,2.535479695,1.672420994,-20.77952815,-59.14628081,1.315471266
2.042706326,4.104531513,4.29758E-05,-0.003315587,,,2.536685155,2.529513161,-14.50553546,-44.2794088,0.211111242
2.042706326,4.104531513,4.29758E-05,-0.003315587,,,2.54306547,4.293417546,-5.28180213,-12.78879168,-0.784062408
2.042706326,4.104531513,4.29758E-05,-0.003315587,,,2.543657931,2.16122543,-17.02206088,-50.69655027,0.67054206
2.042706326,4.104531513,4.29758E-05,-0.003315587,,,2.546642823,1.211409635,-24.73654894,-66.99042792,1.954900216
2.057560664,5,-1.22589E-05,-0.003421269,,,2.548920142,0.906610123,-27.60489041,-72.1288006,2.364022933
2.062617502,0.759676855,8.59195E-05,-0.000930255,,,2.555559902,3.612439409,-8.36893783,-25.0639656,-0.738633962
2.062617502,0.759676855,8.59195E-05,-0.000930255,,,2.558558742,0.158325205,-35.50644965,-84.5379345,3.251847491
2.072975448,4.670177536,4.37165E-06,-0.003408708,,,2.559963833,4.689037178,-3.625216201,-5.618083278,-0.476731307
2.077785676,0.548963442,6.63076E-05,-0.000684893,,,2.566859271,2.306273851,-15.96900685,-48.14541458,0.499473492
2.092953851,0.338250029,4.34125E-05,-0.000429678,,,2.575197999,4.795899397,-3.195278667,-3.683614045,-0.339512301
2.096761338,0.913917744,0.000100694,-0.001102758,,,2.581663467,4.607673207,-3.988504131,-7.091285188,-0.568090654
2.096761338,0.913917744,0.000100694,-0.001102758,,,2.585328546,2.853003272,-12.43352057,-38.54553661,-0.129502196
2.103495114,4.446310414,1.88535E-05,-0.003381497,,,2.586852151,1.053732022,-26.14306072,-69.58827903,2.212848376
2.108122026,0.127536616,1.73085E-05,-0.000164853,,,2.591355492,4.563632813,-4.179887178,-7.888731783,-0.61159665
2.108122026,0.127536616,1.73085E-05,-0.000164853,,,2.591674533,4.320019384,-5.190349286,-12.30097904,-0.777580644
2.110809022,1.108619325,0.00011576,-0.00131291,,,2.594981044,3.533553469,-8.734792919,-26.45654122,-0.693428366
2.124856705,1.303320907,0.000128316,-0.001513978,,,2.59605512,3.670377612,-8.071435118,-24.00697566,-0.761888667
2.13401478,4.222443292,3.54689E-05,-0.003339659,,,2.597052116,4.192645979,-5.72965653,-14.60404205,-0.822628705
2.13401478,4.222443292,3.54689E-05,-0.003339659,,,2.604916755,0.681606858,-29.78327752,-75.79428155,2.724826968
2.138904389,1.498022488,0.000138296,-0.00170579,,,2.605426084,4.482457515,-4.525572465,-9.358407198,-0.681063602
2.138904389,1.498022488,0.000138296,-0.00170579,,,2.606290268,1.414601416,-22.84923545,-63.44359795,1.735796121
2.164283901,4.788089316,-4.04858E-06,-0.003412827,,,2.606532044,3.805946509,-7.433960337,-21.57016795,-0.810095296
2.164283901,4.788089316,-4.04858E-06,-0.003412827,,,2.609833229,0.032184638,-36.91808308,-86.50100755,3.454124548
2.16465572,3.340436716,0.000103117,-0.003035979,,,2.609955262,3.351900732,-9.642002568,-29.68822354,-0.572730965
2.16465572,3.340436716,0.000103117,-0.003035979,,,2.611044834,0.189201778,-35.10218829,-83.92796962,3.304296732
2.166666667,0,0,0,,,2.611191549,4.131240573,-5.99425831,-15.71052277,-0.835618257
2.173118638,3.553329427,8.83738E-05,-0.003129304,,,2.612026982,0.564920495,-30.98697959,-77.7225327,2.880092409
2.173529957,3.153255612,0.000115724,-0.002942654,,,2.612621283,3.991347233,-6.600621025,-18.23311496,-0.842004711
2.173529957,3.153255612,0.000115724,-0.002942654,,,2.616909648,4.854912559,-3.010794105,-2.616662912,-0.254405953
2.177042057,2.949339258,0.000127564,-0.002829979,,,2.61721411,0.505020177,-31.61520332,-78.70656412,2.960165108
2.179388783,4.894044658,-1.03349E-05,-0.003415696,,,2.621532593,3.107704228,-10.93677101,-34.01476722,-0.3682222
2.180554157,2.745422905,0.000137477,-0.00270574,,,2.623759589,2.92653791,-11.9610534,-37.21372591,-0.191562226
2.181581556,3.766222139,7.2391E-05,-0.003209567,,,2.627125298,1.187214514,-24.84681055,-67.26575712,2.074656455
2.184066257,2.541506552,0.000145199,-0.002570098,,,2.629247944,0.400633269,-32.72658515,-80.4106184,3.100951116
2.184066257,2.541506552,0.000145199,-0.002570098,,,2.634435356,2.771984394,-12.86715562,-39.92352751,-0.022150522
2.185907702,0.676500057,8.38226E-05,-0.000833084,,,2.639352831,0.837167904,-28.16861322,-73.13254108,2.567168764
2.185907702,0.676500057,8.38226E-05,-0.000833084,,,2.639766615,1.099661193,-25.6392352,-68.72204201,2.210302576
2.190044474,3.979114851,5.56244E-05,-0.003276653,,,2.647072161,4.877436566,-2.966205398,-2.209652335,-0.220004378
2.190044474,3.979114851,5.56244E-05,-0.003276653,,,2.651736778,4.979012121,-2.55522477,-0.377882692,-0.04044491
2.19344554,1.708435288,0.000149243,-0.001901413,,,2.654756416,4.224225284,-5.612397949,-14.02331752,-0.81801004
2.19344554,1.708435288,0.000149243,-0.001901413,,,2.666642803,4.380375824,-4.980401463,-11.20010238,-0.753853908
2.194493665,5,-1.60562E-05,-0.003415277,,,2.66875054,3.798691644,-7.448483807,-21.67599142,-0.804367227
2.194711988,4.12122791,4.42345E-05,-0.003314095,,,2.669915313,3.661765289,-8.078933227,-24.12630262,-0.750579867
2.194711988,4.12122791,4.42345E-05,-0.003314095,,,2.670436317,2.557207578,-14.16614959,-43.64596615,0.245619149
2.194803567,4.564222194,1.01485E-05,-0.003393337,,,2.670703242,3.534379127,-8.686852176,-26.40006576,-0.682783294
2.200291794,1.912344107,0.000153362,-0.002081457,,,2.672139988,0.068838522,-36.43008795,-85.77313572,3.523822946
2.201075877,0.465786644,6.15117E-05,-0.000584209,,,2.673742279,3.352596251,-9.59096135,-29.63303856,-0.559293959
2.207138049,2.116252926,0.000154557,-0.002250814,,,2.674087256,1.394219881,-22.93076052,-63.6774053,1.832317313
2.213984303,2.320161745,0.000152917,-0.002409296,,,2.674839779,3.984092367,-6.6279129,-18.3454237,-0.841352185
2.213984303,2.320161745,0.000152917,-0.002409296,,,2.677444664,1.689105996,-20.44663624,-58.64469345,1.41514829
2.216244052,0.255073231,3.57258E-05,-0.000325632,,,2.685051742,4.12262825,-6.040425286,-15.84938649,-0.839269709
2.216244052,0.255073231,3.57258E-05,-0.000325632,,,2.68531961,3.108399747,-10.87397991,-33.94957908,-0.348686732
2.220051538,0.830740947,0.000100327,-0.001008237,,,2.688293672,0.27200506,-34.08314451,-82.41125354,3.337464886
2.225323233,4.340355072,2.69632E-05,-0.003359223,,,2.689059336,1.976422297,-18.18645563,-53.69433342,1.020695396
2.225323233,4.340355072,2.69632E-05,-0.003359223,,,2.691699227,0.924830782,-27.23575109,-71.56676855,2.513769157
2.254195375,0.984981836,0.000115569,-0.001177731,,,2.698493231,4.696325139,-3.761350531,-5.482585555,-0.481829981
2.254195375,0.984981836,0.000115569,-0.001177731,,,2.699481787,2.927363567,-11.87753358,-37.12734137,-0.162889333
2.268243058,1.179683418,0.000130847,-0.001384137,,,2.705142293,3.604652744,-8.330408916,-25.12763812,-0.716780026
2.274788692,0.127536616,1.89639E-05,-0.000164371,,,2.705574367,4.185857209,-5.782710033,-14.70558004,-0.829379376
2.282290742,1.374384999,0.000143361,-0.001581421,,,2.709467406,2.2684411,-16.04640923,-48.61972769,0.637839161
2.282290742,1.374384999,0.000143361,-0.001581421,,,2.716680876,4.901552447,-2.986544874,-1.774226207,-0.182826428
2.286020442,4.23913969,3.56362E-05,-0.003336934,,,2.717869893,2.782056373,-12.71268031,-39.65904698,0.004547714
2.286112021,4.682133974,6.89705E-07,-0.003400581,,,2.723516057,1.893764001,-18.76629441,-55.06322692,1.1641985
2.286112021,4.682133974,6.89705E-07,-0.003400581,,,2.728973426,0.036653885,-36.75332053,-86.17583586,3.651086976
2.301216903,4.788089316,-6.85703E-06,-0.003406521,,,2.731457541,2.054178275,-17.54897737,-52.29111919,0.945318679
2.309197903,0.59332326,8.02642E-05,-0.000734541,,,2.732988167,4.327453823,-5.224033763,-12.14728947,-0.784453072
2.309197903,0.59332326,8.02642E-05,-0.000734541,,,2.736273419,0.963520689,-26.79822265,-70.83323117,2.514883514
2.316321785,4.894044658,-1.39329E-05,-0.003409137,,,2.740720068,2.565692031,-14.02532848,-43.41307153,0.274217499
2.316631687,4.458266852,1.74895E-05,-0.003374216,,,2.743955482,4.489745476,-4.601509105,-9.215448669,-0.688102067
2.316631687,4.458266852,1.74895E-05,-0.003374216,,,2.744485281,2.863900907,-12.19767882,-38.19580757,-0.074671666
2.320456787,3.427912766,0.000104852,-0.003069795,,,2.744882732,0.699468524,-29.4172612,-75.22687516,2.889967747
2.320456787,3.427912766,0.000104852,-0.003069795,,,2.745241652,1.668724461,-20.51487506,-58.88153627,1.505908237
2.324366077,0.382609847,5.5061E-05,-0.000482274,,,2.75382392,0.207422437,-34.74191859,-83.33199516,3.513910143
2.324366077,0.382609847,5.5061E-05,-0.000482274,,,2.760855233,4.617100394,-4.134220393,-6.912712221,-0.575732355
2.328919705,3.640805478,8.80869E-05,-0.003157617,,,2.76921392,0.418494936,-32.36358847,-79.83038319,3.289065539
2.329331024,3.240731662,0.000119198,-0.00298116,,,2.770547259,4.57306,-4.308730327,-7.708097226,-0.61972671
2.331426667,5,-2.04232E-05,-0.003408439,,,2.775796295,4.295133247,-5.367764009,-12.72307713,-0.798982896
2.333333333,0,0,0,,,2.776395582,4.726110387,-3.745356435,-4.942005523,-0.450606077
2.336831893,1.584797799,0.00015682,-0.001783025,,,2.779751157,2.276925553,-15.89332233,-48.37393073,0.67472172
2.337382623,3.853698189,7.01184E-05,-0.003232326,,,2.781642763,3.835601021,-7.249415759,-20.96719408,-0.80396106
2.337382623,3.853698189,7.01184E-05,-0.003232326,,,2.784756145,3.332253775,-9.607567467,-29.91126127,-0.512451233
2.33820526,3.053550558,0.000132234,-0.002882625,,,2.786350226,3.978930433,-6.638350383,-18.40124886,-0.834835919
2.33820526,3.053550558,0.000132234,-0.002882625,,,2.793077004,0.588025075,-30.51236287,-76.97777147,3.106170636
2.34171736,2.849634204,0.000144181,-0.00276441,,,2.793706336,3.143470577,-10.58147497,-33.2343438,-0.342303543
2.342050136,3.995811248,5.76805E-05,-0.003274883,,,2.798264132,0.528124757,-31.14135586,-77.95824132,3.192609929
2.343341739,0.747564149,9.86206E-05,-0.00091227,,,2.798486109,1.364603878,-23.00919797,-63.95670458,2.005219732
2.34522946,2.645717851,0.000153863,-0.00263474,,,2.798572325,1.20630186,-24.42701256,-66.6307942,2.238883509
2.34522946,2.645717851,0.000153863,-0.00263474,,,2.801699384,0.180310678,-34.99977206,-83.67010456,3.622509614
2.34671765,4.137924307,4.51161E-05,-0.003311517,,,2.803998532,1.86956888,-18.83725221,-55.34761982,1.267146004
2.34671765,4.137924307,4.51161E-05,-0.003311517,,,2.806558095,4.748634395,-3.702474354,-4.534478711,-0.422917367
2.375147506,2.424373044,0.000163613,-0.002480197,,,2.809221142,1.132548519,-25.09088121,-67.85205983,2.359532928
2.377328895,4.357051469,2.59627E-05,-0.003355194,,,2.813031039,3.458541882,-8.96133605,-27.65535788,-0.600271455
2.377485575,0.901805039,0.000115656,-0.001084385,,,2.813483,3.746402344,-7.628893152,-22.54284902,-0.765972258
2.382910718,0.255073231,3.90001E-05,-0.000324625,,,2.814892077,2.064250253,-17.35776602,-51.98830862,0.99654629
2.391373044,1.795210599,0.000167217,-0.00197328,,,2.817137648,4.979012121,-2.876116762,-0.377870432,-0.042103168
2.391373044,1.795210599,0.000167217,-0.00197328,,,2.824374315,4.07801319,-6.231189534,-16.61334268,-0.837840703
2.398219298,1.999119418,0.000170316,-0.002148337,,,2.828205194,0.746712668,-28.81992084,-74.26883441,2.938689306
2.405065553,2.203028237,0.000170225,-0.002312665,,,2.832994344,4.468926618,-4.744183489,-9.58251078,-0.707735777
2.405065553,2.203028237,0.000170225,-0.002312665,,,2.833738448,3.021767916,-11.20327393,-35.33297916,-0.203227144
2.40794014,4.576178632,7.08982E-06,-0.00338457,,,2.839976108,4.801978188,-3.557741985,-3.570590202,-0.349163458
2.40794014,4.576178632,7.08982E-06,-0.00338457,,,2.841662205,4.131276127,-6.020892461,-15.65332084,-0.834306629
2.40794014,4.576178632,7.08982E-06,-0.00338457,,,2.842041876,3.517739111,-8.658127588,-26.58623692,-0.632823657
2.40794014,4.576178632,7.08982E-06,-0.00338457,,,2.843157573,3.698291764,-7.829044084,-23.38249588,-0.737802887
2.40794014,4.576178632,7.08982E-06,-0.00338457,,,2.844548821,4.901552447,-3.209718904,-1.773864132,-0.187606512
2.411629411,1.056045929,0.000131244,-0.001250803,,,2.848436371,1.01865011,-26.10699057,-69.68545226,2.574218731
2.411629411,1.056045929,0.000131244,-0.001250803,,,2.853494081,1.576817613,-21.11175737,-60.25434708,1.746086179
2.423045022,4.682133974,-1.69421E-06,-0.003393617,,,2.858496592,0.396911311,-32.48822803,-79.99024534,3.452975452
2.423045022,4.682133974,-1.69421E-06,-0.003393617,,,2.866364169,2.569311069,-13.84356596,-43.18553588,0.346319892
2.425677095,1.25074751,0.00014658,-0.00145339,,,2.867442291,4.22877015,-5.649674402,-13.89760911,-0.817552283
2.425677095,1.25074751,0.00014658,-0.00145339,,,2.871526421,1.918714435,-18.36206068,-54.39054128,1.254642882
2.432488103,0.510146463,7.51138E-05,-0.000634706,,,2.871648581,2.968308114,-11.46011543,-36.22793016,-0.127556472
2.432488103,0.510146463,7.51138E-05,-0.000634706,,,2.872779385,0.785402575,-28.36445198,-73.52968883,2.944547829
2.432488103,0.510146463,7.51138E-05,-0.000634706,,,2.875802471,4.436606043,-4.88939391,-10.159901,-0.729903658
2.432488103,0.510146463,7.51138E-05,-0.000634706,,,2.876206177,2.00443916,-17.71079105,-52.91401987,1.133349996
2.432488103,0.510146463,7.51138E-05,-0.000634706,,,2.884284018,2.727264868,-12.84579888,-40.41715944,0.159180034
2.438026104,4.255836087,3.5352E-05,-0.003333032,,,2.890624359,0.030876573,-36.65745006,-85.89796721,3.937627211
2.438149904,4.788089316,-1.01135E-05,-0.003399311,,,2.891842947,4.628174448,-4.230538499,-6.705837052,-0.571618854
2.438149904,4.788089316,-1.01135E-05,-0.003399311,,,2.896538286,2.346071758,-15.26166145,-47.00434593,0.664794444
2.441455359,0.127536616,2.0677E-05,-0.000163831,,,2.903348447,4.57589366,-4.421662983,-7.647674069,-0.623294798
2.453254786,4.894044658,-1.80534E-05,-0.003401655,,,2.906372056,0.369799552,-32.7269929,-80.32605878,3.562643882
2.453254786,4.894044658,-1.80534E-05,-0.003401655,,,2.906704341,2.796209231,-12.40794724,-39.18839358,0.08912721
2.466631939,0.664387352,9.54479E-05,-0.000814933,,,2.912862447,0.144832309,-35.28484951,-83.99098878,3.849482583
2.466631939,0.664387352,9.54479E-05,-0.000814933,,,2.920836872,3.609929395,-8.182137752,-24.89954907,-0.668054593
2.468359668,5,-2.53915E-05,-0.003400658,,,2.925840271,1.697285357,-20.01541944,-58.06917457,1.636552658
2.468359668,5,-2.53915E-05,-0.003400658,,,2.926174149,0.610971931,-30.08868757,-76.3051636,3.267107761
2.468359668,5,-2.53915E-05,-0.003400658,,,2.927649164,4.65491292,-4.178153181,-6.221566653,-0.544014227
2.468637349,4.474963249,1.52405E-05,-0.003368805,,,2.928231089,3.927671365,-6.82233396,-19.25864292,-0.804965916
2.468637349,4.474963249,1.52405E-05,-0.003368805,,,2.930250756,3.247328811,-9.91108918,-31.27822448,-0.38232183
2.476257853,3.515388816,0.000105309,-0.003100245,,,2.93233184,0.53986367,-30.83561821,-77.46591088,3.375200215
2.476257853,3.515388816,0.000105309,-0.003100245,,,2.936995996,4.748634395,-3.878436725,-4.531097045,-0.429381756
2.480218246,1.46116031,0.000162838,-0.001660807,,,2.942352314,4.975085081,-3.139589345,-0.448589961,-0.051030823
2.484720771,3.728281528,8.64002E-05,-0.003182511,,,2.942910932,4.877436566,-3.463810683,-2.208175611,-0.232687098
2.484720771,3.728281528,8.64002E-05,-0.003182511,,,2.944754969,4.338139803,-5.27448561,-11.91835097,-0.778603228
2.48513209,3.328207712,0.000121505,-0.003016331,,,2.953966272,0.88095073,-27.29006821,-71.75920404,2.914115064
2.489388285,3.870394586,7.30747E-05,-0.00323016,,,2.954095678,2.2107723,-16.1099766,-49.24007207,0.900152701
2.491032744,0.382609847,5.99058E-05,-0.000480693,,,2.954166399,4.537525585,-4.596183599,-8.334302847,-0.657303824
2.491032744,0.382609847,5.99058E-05,-0.000480693,,,2.971530868,2.892707429,-11.77320625,-37.42605719,0.013741173
2.494006327,3.141026608,0.000136388,-0.002922486,,,2.975526479,1.392602052,-22.49571386,-63.13068244,2.157473189
2.494055798,4.012507645,5.94133E-05,-0.003271905,,,2.979088613,0.656901102,-29.53144967,-75.42239011,3.278581971
2.498723312,4.154620704,4.55973E-05,-0.003307713,,,2.982724549,1.738684688,-19.59669677,-57.25442661,1.629998409
2.498723312,4.154620704,4.55973E-05,-0.003307713,,,2.988901235,4.748634395,-3.948372907,-4.529586481,-0.430837095
2.5,0,0,0,,,2.989165277,0.507679033,-31.10318746,-77.8623059,3.505820183
2.500775776,0.818628242,0.000114404,-0.000989592,,,2.989266386,4.65491292,-4.24610415,-6.218160611,-0.54525635
2.500775776,0.818628242,0.000114404,-0.000989592,,,2.993782696,0.291322185,-33.49635792,-81.4022475,3.80505971
2.502880563,2.953845504,0.000149652,-0.002818833,,,2.99481617,4.877436566,-3.552904459,-2.207838375,-0.234026211
2.502880563,2.953845504,0.000149652,-0.002818833,,,3.00123251,3.348688995,-9.343455591,-29.4311352,-0.440811363
2.506392663,2.749929151,0.000161472,-0.002695196,,,3.003099223,3.865497986,-7.05075249,-20.32439334,-0.768012621
2.506392663,2.749929151,0.000161472,-0.002695196,,,3.003969536,4.975085081,-3.263950673,-0.448572929,-0.051513855
2.529334557,4.373747867,2.44268E-05,-0.003349891,,,3.005745572,2.160388512,-16.38967748,-50.0139892,1.016914566
2.529334557,4.373747867,2.44268E-05,-0.003349891,,,3.007901299,4.011708108,-6.47572973,-17.72780155,-0.804861135
2.534759397,1.67157311,0.000175867,-0.001856976,,,3.009323154,4.177511082,-5.861683282,-14.77550186,-0.810840592
2.534919612,0.972869131,0.000131847,-0.001158598,,,3.010293731,4.559533451,-4.570929986,-7.93279576,-0.638107104
2.534919612,0.972869131,0.000131847,-0.001158598,,,3.010362588,3.156111533,-10.30090247,-32.78948975,-0.253172333
2.53631071,2.528584343,0.000173451,-0.002546956,,,3.02053493,4.384316743,-5.149010064,-11.07577167,-0.752768704
2.545293919,4.583404744,4.59572E-06,-0.0033776,,,3.02490481,4.624639999,-4.379350108,-6.760773852,-0.577074064
2.545293919,4.583404744,4.59572E-06,-0.0033776,,,3.025189189,4.064971045,-6.273038225,-16.77368259,-0.807850759
2.549577385,0.255073231,4.23847E-05,-0.0003235,,,3.025476741,1.046648284,-25.57249006,-68.83064929,2.755402313
2.549577385,0.255073231,4.23847E-05,-0.0003235,,,3.027579142,1.242518305,-23.74935698,-65.54386705,2.452315434
2.560398801,4.689360086,-5.10658E-06,-0.003386178,,,3.030243347,3.407886224,-9.034971696,-28.36581434,-0.477686451
2.566228756,2.307239536,0.000182194,-0.002385681,,,3.032773796,3.817387407,-7.233946688,-21.15814829,-0.740075278
2.569063448,1.127110021,0.000147655,-0.001321864,,,3.037273662,2.504461202,-14.02865921,-44.04936209,0.554073652
2.569063448,1.127110021,0.000147655,-0.001321864,,,3.03822796,1.168764964,-24.40752697,-66.7572473,2.581025934
2.569063448,1.127110021,0.000147655,-0.001321864,,,3.047467738,0.624308411,-29.77381636,-75.796659,3.426396446
2.569063448,1.127110021,0.000147655,-0.001321864,,,3.048272721,3.102651731,-10.54003871,-33.67654817,-0.175613809
2.569063448,1.127110021,0.000147655,-0.001321864,,,3.051386712,0.546194602,-30.59964005,-77.07546127,3.546059904
2.569063448,1.127110021,0.000147655,-0.001321864,,,3.053378005,0.813963471,-27.80930223,-72.64142069,3.150848008
2.571266269,0.527856548,8.27949E-05,-0.000653851,,,3.066331484,3.525004431,-8.465710416,-26.27939363,-0.553472629
2.571266269,0.527856548,8.27949E-05,-0.000653851,,,3.067425199,3.701999739,-7.694097004,-23.16952602,-0.669859225
2.575503683,4.795315428,-1.44401E-05,-0.003391379,,,3.067815584,4.402855773,-5.111267348,-10.73509816,-0.739286532
2.589300548,1.881985911,0.00018545,-0.002041688,,,3.077430164,1.910485146,-18.11452851,-54.14261631,1.459690196
2.589300548,1.881985911,0.00018545,-0.002041688,,,3.077843657,0.369799552,-32.49791119,-79.9057474,3.837389703
2.590031765,4.272532484,3.45882E-05,-0.003327804,,,3.080955624,0.144832309,-35.08179121,-83.56664871,4.140489987
2.590031765,4.272532484,3.45882E-05,-0.003327804,,,3.081372306,1.982698111,-17.5659459,-52.9053434,1.352664934
2.590608565,4.90127077,-2.32824E-05,-0.003393204,,,3.083447288,4.801978188,-3.921501573,-3.566214405,-0.356734402
2.590608565,4.90127077,-2.32824E-05,-0.003393204,,,3.083692693,1.458997223,-21.75138532,-61.77521094,2.175881574
2.595142471,5,-3.05534E-05,-0.003392522,,,3.08802,4.901552447,-3.644618395,-1.772810859,-0.193219888
2.596146802,2.085894729,0.000187285,-0.002211641,,,3.104055738,4.176538866,-5.872045462,-14.76010149,-0.792243641
2.596146802,2.085894729,0.000187285,-0.002211641,,,3.10536037,2.643379698,-13.07058572,-41.54551068,0.419333426
2.605410105,0.682097437,0.000104249,-0.00083292,,,3.108057725,0.030876573,-36.41237467,-85.34054871,4.329036423
2.605991127,4.482189362,1.34408E-05,-0.003361685,,,3.108075288,2.996565662,-11.03875879,-35.44117007,-0.019633319
2.608122026,0.127536616,2.24489E-05,-0.000163232,,,3.109670389,4.748634395,-4.110097766,-4.525629117,-0.431758338
2.608122026,0.127536616,2.24489E-05,-0.000163232,,,3.110979349,0.786507975,-27.99883887,-72.95490965,3.274181867
2.623604599,1.337522821,0.000167004,-0.001534917,,,3.120249942,4.979012121,-3.49031336,-0.377807124,-0.044071698
2.623604599,1.337522821,0.000167004,-0.001534917,,,3.120320371,1.771008876,-19.12642356,-56.4205102,1.721092671
2.62981091,0.400319932,6.67269E-05,-0.000500669,,,3.127780693,2.71232406,-12.62655574,-40.32178913,0.345655771
2.632058919,3.602864866,0.000104365,-0.00312714,,,3.130257873,0.402244374,-32.06151478,-79.23740468,3.876925791
2.632058919,3.602864866,0.000104365,-0.00312714,,,3.136140942,2.415653608,-14.46349539,-45.40357611,0.759711378
2.632058919,3.602864866,0.000104365,-0.00312714,,,3.138528208,3.261310468,-9.641567401,-30.80758431,-0.284484357
2.632058919,3.602864866,0.000104365,-0.00312714,,,3.138811721,2.109737226,-16.55154743,-50.6254264,1.214184005
2.632058919,3.602864866,0.000104365,-0.00312714,,,3.139691556,4.723133031,-4.219274969,-4.982884046,-0.464067144
2.632058919,3.602864866,0.000104365,-0.00312714,,,3.140576971,1.500396553,-21.30739253,-60.94761607,2.174966517
2.636726433,3.744977925,9.03418E-05,-0.00317983,,,3.141257022,3.957809281,-6.648361001,-18.61405413,-0.753247563
2.636726433,3.744977925,9.03418E-05,-0.00317983,,,3.142440361,2.827857562,-11.93485825,-38.3071781,0.208537987
2.639553941,0.836338327,0.00012418,-0.001006411,,,3.145878856,1.02829803,-25.55808245,-68.8479456,2.941715848
2.640933156,3.415683762,0.000122525,-0.003047978,,,3.151336392,4.195077896,-5.81157651,-14.41291948,-0.77933647
2.640933156,3.415683762,0.000122525,-0.003047978,,,3.151908467,4.544868871,-4.730913222,-8.179838463,-0.641833747
2.641393947,3.887090984,7.57635E-05,-0.003226652,,,3.161779648,4.021038241,-6.412194379,-17.48702274,-0.761927463
2.641393947,3.887090984,7.57635E-05,-0.003226652,,,3.164216577,4.599713454,-4.586447954,-7.19620349,-0.594867266
2.64606146,4.029204042,6.08041E-05,-0.003267564,,,3.166533675,4.425100572,-5.090270286,-10.31773617,-0.714855202
2.64606146,4.029204042,6.08041E-05,-0.003267564,,,3.172967259,3.331584085,-9.26915409,-29.54537904,-0.331093364
2.649807393,3.228502658,0.000139376,-0.002958858,,,3.176484002,3.900696736,-6.849673515,-19.59791818,-0.720197598
2.649807393,3.228502658,0.000139376,-0.002958858,,,3.179777883,3.501807046,-8.481149465,-26.57578693,-0.47650395
2.650728974,4.171317101,4.56549E-05,-0.00330253,,,3.181192635,3.730755576,-7.510033956,-22.57582829,-0.635685498
2.650728974,4.171317101,4.56549E-05,-0.00330253,,,3.183531701,3.197847808,-9.909408596,-31.85260866,-0.190736359
2.650728974,4.171317101,4.56549E-05,-0.00330253,,,3.187790835,2.36526982,-14.71973194,-46.1681732,0.878657336
2.650728974,4.171317101,4.56549E-05,-0.00330253,,,3.190604351,0.180310678,-34.52056233,-82.69187007,4.287495866
2.650728974,4.171317101,4.56549E-05,-0.00330253,,,3.196382839,1.27724015,-23.16557292,-64.5618536,2.603989423
2.65868163,3.041321554,0.000154585,-0.002859905,,,3.2034802,1.000842534,-25.72933359,-69.15842907,3.063308301
2.65868163,3.041321554,0.000154585,-0.002859905,,,3.206409697,4.901552447,-3.85744755,-1.772049728,-0.193682963
2.666666667,0,0,0,,,3.209024156,1.189686829,-23.94101182,-65.99478905,2.763135743
2.666666667,0,0,0,,,3.209155366,0.625070042,-29.52178996,-75.36586039,3.668844338
2.666666667,0,0,0,,,3.212456639,0.559268376,-30.21946984,-76.43967496,3.775259103
2.666688336,4.380973979,2.33781E-05,-0.003342587,,,3.21790698,4.043046107,-6.322956441,-17.0687021,-0.745624228
2.667555867,2.85414045,0.000167855,-0.002751249,,,3.222617242,3.036498479,-10.69288767,-34.58678936,0.015897685
2.667555867,2.85414045,0.000167855,-0.002751249,,,3.224156093,0.752165618,-28.17239924,-73.22810334,3.491843371
2.667555867,2.85414045,0.000167855,-0.002751249,,,3.224267155,4.682359295,-4.426321912,-5.709697455,-0.507556305
2.667555867,2.85414045,0.000167855,-0.002751249,,,3.23110186,4.264471852,-5.596920645,-13.15387694,-0.750204918
2.667555867,2.85414045,0.000167855,-0.002751249,,,3.236707884,3.498573458,-8.448997638,-26.57157447,-0.439686432
2.667555867,2.85414045,0.000167855,-0.002751249,,,3.238122636,3.727521988,-7.488961645,-22.58387531,-0.604048554
2.673697778,0.990579216,0.000142454,-0.001174235,,,3.239641328,0.44351066,-31.44260232,-78.26323044,3.994274817
2.673697778,0.990579216,0.000142454,-0.001174235,,,3.240549427,3.32774546,-9.222427116,-29.52961329,-0.283186727
2.67814575,1.547935621,0.000182962,-0.001736824,,,3.242352769,1.586793315,-20.41831771,-59.25014446,2.152769723
2.67814575,1.547935621,0.000182962,-0.001736824,,,3.243018567,0.2127555,-34.06764767,-82.01638405,4.335469502
2.682647698,4.590630857,1.64127E-06,-0.003369503,,,3.24406617,3.896858111,-6.837157745,-19.61896767,-0.688084562
2.682647698,4.590630857,1.64127E-06,-0.003369503,,,3.248234099,3.209069089,-9.785693235,-31.57177376,-0.157183249
2.688355551,0.272783316,4.82275E-05,-0.000344352,,,3.263910728,1.326385705,-22.61552481,-63.56731174,2.607928273
2.697473913,2.632795643,0.000182256,-0.002609356,,,3.267069454,2.818269691,-11.83010366,-38.26775032,0.320654014
2.697473913,2.632795643,0.000182256,-0.002609356,,,3.267414146,2.573537403,-13.27582476,-42.45625166,0.652381961
2.69775258,4.696586199,-9.05278E-06,-0.003377591,,,3.268725807,4.877436566,-4.022722997,-2.205289721,-0.235218188
2.710044435,0.545566633,9.08995E-05,-0.000672624,,,3.269462063,0.036653885,-36.14048199,-84.78832565,4.62172682
2.710044435,0.545566633,9.08995E-05,-0.000672624,,,3.270812773,3.268693124,-9.472667975,-30.51120581,-0.20283509
2.712857462,4.802541541,-1.93796E-05,-0.003382278,,,3.271151881,4.009194039,-6.426985674,-17.63195014,-0.714415349
2.712857462,4.802541541,-1.93796E-05,-0.003382278,,,3.273390425,4.979012121,-3.807032691,-0.377769314,-0.044298517
2.717391368,4.90127077,-2.81694E-05,-0.003384296,,,3.277121377,3.045951083,-10.57961247,-34.34083648,0.047224866
2.721925275,5,-3.62786E-05,-0.003383398,,,3.277403282,1.157094139,-24.12941177,-66.36056559,2.906084766
2.727385544,4.279758596,3.43369E-05,-0.003320284,,,3.279547097,2.26812667,-15.23363381,-47.6364679,1.111304763
2.727385544,4.279758596,3.43369E-05,-0.003320284,,,3.281428841,3.947484456,-6.639373728,-18.70607946,-0.689446905
2.727391959,2.411450836,0.000193339,-0.002454391,,,3.294029534,2.655381937,-12.7421128,-41.00703048,0.562634595
2.727391959,2.411450836,0.000193339,-0.002454391,,,3.295666562,0.917863172,-26.38835491,-70.28912405,3.326973072
2.732686901,1.758348422,0.000195287,-0.001927367,,,3.298746974,4.851935202,-4.128523194,-2.663422458,-0.276553657
2.732686901,1.758348422,0.000195287,-0.001927367,,,3.301295185,4.173233874,-5.882883102,-14.73440013,-0.729146137
2.743344906,4.489415474,1.1241E-05,-0.003353388,,,3.3135379,4.403686933,-5.214176056,-10.66232883,-0.691076819
2.744188271,0.699807522,0.000113468,-0.000850479,,,3.321573589,2.827722296,-11.70587107,-38.00953002,0.355867543
2.744601378,1.154870591,0.000162463,-0.001345582,,,3.326814256,0.297020785,-32.96736116,-80.40111544,4.360224975
2.744601378,1.154870591,0.000162463,-0.001345582,,,3.328728246,2.51372631,-13.5594791,-43.35456502,0.795636979
2.746900192,0.145246701,2.71884E-05,-0.000185009,,,3.331683498,0.075169454,-35.58733876,-83.97991802,4.687054474
2.746900192,0.145246701,2.71884E-05,-0.000185009,,,3.333372248,3.509836681,-8.318906128,-26.26534582,-0.384101938
2.757310005,2.190106029,0.000200652,-0.002286624,,,3.334465963,3.68683199,-7.588291341,-23.20022949,-0.519625805
2.757310005,2.190106029,0.000200652,-0.002286624,,,3.335192443,1.755208869,-18.90491145,-56.18389302,1.984625918
2.768589076,0.418030017,7.39756E-05,-0.000520304,,,3.339860278,1.280127353,-22.90176204,-64.13866728,2.782428159
2.776318802,3.518660611,0.000119526,-0.003083792,,,3.340711515,1.198389108,-23.64258896,-65.50003267,2.921027448
2.776318802,3.518660611,0.000119526,-0.003083792,,,3.342062666,4.517169711,-4.935591663,-8.643098186,-0.629422995
2.777403236,3.694153863,0.000101057,-0.003152401,,,3.34614773,4.144717501,-5.967385485,-15.21153616,-0.706807372
2.777403236,3.694153863,0.000101057,-0.003152401,,,3.347229564,4.781933554,-4.346729769,-3.918100878,-0.37697877
2.778332107,0.854048412,0.000134365,-0.001022743,,,3.353683793,2.093937219,-16.33115241,-50.42241662,1.458675428
2.778332107,0.854048412,0.000134365,-0.001022743,,,3.354370776,4.572014294,-4.81239816,-7.665975669,-0.590380059
2.782070749,3.836266921,8.55028E-05,-0.003201175,,,3.355373379,1.890047382,-17.82896251,-53.86129714,1.787570168
2.785193039,3.331479507,0.000138408,-0.003000237,,,3.358731932,2.666603218,-12.58567624,-40.68983044,0.607706365
2.786738263,3.97837998,6.94303E-05,-0.003244059,,,3.359315521,1.962260347,-17.28079436,-52.63344541,1.675125178
2.787228052,1.968761222,0.000203784,-0.002106335,,,3.359767655,1.48427899,-21.08372914,-60.67007121,2.464506012
2.787228052,1.968761222,0.000203784,-0.002106335,,,3.362698872,3.389002957,-8.822807918,-28.31196573,-0.252648428
2.787228052,1.968761222,0.000203784,-0.002106335,,,3.363737073,3.040904864,-10.50304807,-34.28693657,0.125731553
2.787228052,1.968761222,0.000203784,-0.002106335,,,3.365229321,3.798504139,-7.140078524,-21.23324357,-0.570085341
2.787228052,1.968761222,0.000203784,-0.002106335,,,3.366561853,3.157852339,-9.908713098,-32.27816048,-0.007884751
2.787228052,1.968761222,0.000203784,-0.002106335,,,3.37127138,4.660945655,-4.627610614,-6.079907861,-0.512403826
2.787228052,1.968761222,0.000203784,-0.002106335,,,3.374603941,1.008432431,-25.37322014,-68.56356122,3.287547117
2.791405777,4.120493039,5.30311E-05,-0.003281007,,,3.384641061,4.975085081,-4.04318522,-0.448427366,-0.051948904
2.791405777,4.120493039,5.30311E-05,-0.003281007,,,3.385581722,3.208078552,-9.642304274,-31.38684136,-0.047561025
2.794067276,3.144298403,0.000155684,-0.002906813,,,3.38819217,3.339258332,-9.023236253,-29.13164355,-0.18334275
2.799142529,1.365283391,0.000182622,-0.001556206,,,3.391908263,0.759605974,-27.82310805,-72.62841243,3.730169709
2.802941513,2.957117299,0.000171027,-0.002803651,,,3.395554768,0.038515569,-35.9477713,-84.37137965,4.858642228
2.802941513,2.957117299,0.000171027,-0.002803651,,,3.396702962,3.841150861,-6.966508345,-20.46443049,-0.57330904
2.804042115,4.388200091,2.19886E-05,-0.003334054,,,3.398102147,2.872196764,-11.35905027,-37.10862493,0.368173291
2.804042115,4.388200091,2.19886E-05,-0.003334054,,,3.406981519,2.349152256,-14.49882081,-45.97860268,1.11971849
2.820001476,4.597856969,-1.79092E-06,-0.003360151,,,3.407393498,0.450951017,-31.09991647,-77.64724629,4.259221182
2.820001476,4.597856969,-1.79092E-06,-0.003360151,,,3.407928577,4.35331259,-5.373879811,-11.52076206,-0.67247499
2.827133717,0.290493401,5.44992E-05,-0.000364896,,,3.41000413,2.550691466,-13.21254732,-42.55473662,0.823278256
2.827133717,0.290493401,5.44992E-05,-0.000364896,,,3.413262901,4.028550137,-6.319521343,-17.19715477,-0.644677791
2.833333333,0,0,0,,,3.413392428,2.621723839,-12.77642079,-41.34130934,0.724727038
2.835106358,4.703812311,-1.35557E-05,-0.00336773,,,3.414142307,0.220345397,-33.72997478,-81.37744585,4.629413618
2.835106358,4.703812311,-1.35557E-05,-0.00336773,,,3.420279485,4.944812159,-4.164416735,-0.992804959,-0.111065719
2.83701495,2.789840927,0.000184929,-0.002701651,,,3.421920028,3.976567096,-6.486139379,-18.09374042,-0.620533324
2.83701495,2.789840927,0.000184929,-0.002701651,,,3.423746188,1.445311788,-21.30860957,-61.14595314,2.611381563
2.839640265,4.802541541,-2.38441E-05,-0.003372491,,,3.426147629,0.634694357,-29.0719304,-74.58004616,3.990521953
2.844174172,4.90127077,-3.35609E-05,-0.003374309,,,3.427933656,1.043218569,-24.9484869,-67.8303446,3.303672548
2.848708078,5,-4.25867E-05,-0.003373186,,,3.429448902,0.568892691,-29.77131675,-75.64931491,4.104345571
2.848822601,0.563276717,9.94307E-05,-0.000690994,,,3.44149107,4.130710501,-5.995099328,-15.39944093,-0.654282913
2.848822601,0.563276717,9.94307E-05,-0.000690994,,,3.446069826,2.767524668,-11.8796169,-38.79602693,0.554558928
2.849235708,1.018339786,0.000156988,-0.001198933,,,3.448705767,4.83009118,-4.39870099,-3.05147344,-0.301205262
2.85368368,1.575696191,0.00019905,-0.001755621,,,3.452781122,4.324796218,-5.455104719,-12.00353547,-0.657170516
2.866932996,2.56849612,0.000199326,-0.002556128,,,3.452953306,3.276500263,-9.245275561,-30.10865353,-0.062482768
2.868062347,4.228934534,4.08506E-05,-0.003299598,,,3.45797461,3.579420305,-7.924317836,-24.91121141,-0.346336593
2.880698685,4.496641587,8.62907E-06,-0.003343782,,,3.467946315,0.189468824,-34.01421536,-81.70482369,4.774029302
2.880698685,4.496641587,8.62907E-06,-0.003343782,,,3.47544686,2.380291038,-14.19121944,-45.29107338,1.146629617
2.882966437,0.717517607,0.000123105,-0.000867575,,,3.478473472,4.969727079,-4.239724109,-0.544758602,-0.061741779
2.882966437,0.717517607,0.000123105,-0.000867575,,,3.479804548,4.673589848,-4.704410648,-5.842681677,-0.47962958
2.896851042,2.347151313,0.000209987,-0.002397704,,,3.479858448,1.70212936,-19.08547751,-56.68993073,2.247237372
2.907367242,0.435740102,8.16563E-05,-0.000539569,,,3.482098932,3.886874375,-6.760101424,-19.59267038,-0.537254481
2.907367242,0.435740102,8.16563E-05,-0.000539569,,,3.482972724,4.490679799,-5.069561056,-9.078410973,-0.599469785
2.908224831,1.786108992,0.000211516,-0.001943608,,,3.485780419,2.981893282,-10.65932534,-35.07324117,0.312711938
2.908224831,1.786108992,0.000211516,-0.001943608,,,3.492114844,2.729719088,-12.03200246,-39.34064673,0.654068539
2.913566858,0.145246701,2.93191E-05,-0.000184189,,,3.497583803,4.555786347,-4.940952853,-7.926493935,-0.561481113
2.920139309,1.182631161,0.000177909,-0.001368188,,,3.497727333,4.851079059,-4.438745715,-2.674554492,-0.265990045
2.920139309,1.182631161,0.000177909,-0.001368188,,,3.499095353,0.803722187,-27.19033065,-71.57184151,3.818275381
2.920578685,3.434456356,0.000135785,-0.003037249,,,3.502879471,2.123833185,-15.88149457,-49.5460796,1.579642468
2.920578685,3.434456356,0.000135785,-0.003037249,,,3.514193982,1.272838828,-22.66935298,-63.75614039,3.02762251
2.921663119,3.609949608,0.000116558,-0.003109889,,,3.514911048,1.203984001,-23.29333878,-64.89854466,3.148133961
2.922747552,3.785442859,9.60892E-05,-0.003173697,,,3.518373877,0.419458585,-31.2722759,-77.80721331,4.497669081
2.922747552,3.785442859,9.60892E-05,-0.003173697,,,3.523875617,3.479011379,-8.279677384,-26.53854623,-0.200176714
2.926769088,2.125806506,0.00021646,-0.002226655,,,3.52392711,4.269925582,-5.598974751,-12.92680539,-0.621456264
2.926769088,2.125806506,0.00021646,-0.002226655,,,3.524428436,3.081519158,-10.10295779,-33.30608742,0.228472523
2.927415066,3.927555918,7.89279E-05,-0.00321852,,,3.524991314,3.659564032,-7.555146745,-23.45017597,-0.353393171
2.929452922,3.247275252,0.000155226,-0.002949391,,,3.528826115,4.694577727,-4.713027448,-5.463548024,-0.448816614
2.932082579,4.069668977,6.12915E-05,-0.003257428,,,3.536217625,4.456827732,-5.161853906,-9.657004311,-0.589574861
2.932082579,4.069668977,6.12915E-05,-0.003257428,,,3.542455985,1.404010403,-21.46129,-61.48646195,2.838305353
2.938327159,3.060094148,0.000172754,-0.002851764,,,3.543448305,3.131745371,-9.832369041,-32.4171592,0.187730055
2.938327159,3.060094148,0.000172754,-0.002851764,,,3.543836981,1.663162158,-19.28983162,-57.15789571,2.394245915
2.944718917,4.337376029,2.752E-05,-0.003314156,,,3.545819516,1.081034028,-24.38488198,-66.84149029,3.406077802
2.953870038,0.881808982,0.000148484,-0.0010485,,,3.549368915,3.429266754,-8.465702906,-27.34761793,-0.128661603
2.957355255,4.605083082,-5.71546E-06,-0.003349406,,,3.552425069,0.838508325,-26.74552714,-70.8275463,3.839338036
2.957355255,4.605083082,-5.71546E-06,-0.003349406,,,3.55577779,4.580701266,-4.927607549,-7.474164809,-0.52618335
2.957355255,4.605083082,-5.71546E-06,-0.003349406,,,3.556464955,3.702210754,-7.370366892,-22.67974331,-0.357723303
2.957355255,4.605083082,-5.71546E-06,-0.003349406,,,3.55721915,0.032444822,-35.78938864,-83.93416713,5.181122489
2.957355255,4.605083082,-5.71546E-06,-0.003349406,,,3.559484197,2.909420274,-10.94654767,-36.15315044,0.482608503
2.957355255,4.605083082,-5.71546E-06,-0.003349406,,,3.562428433,1.86791092,-17.65528337,-53.67819913,2.071860217
2.957355255,4.605083082,-5.71546E-06,-0.003349406,,,3.567108189,1.953635645,-17.00483937,-52.22872704,1.934943897
2.961889162,4.703812311,-1.74555E-05,-0.003356946,,,3.571344812,2.154971966,-15.55377634,-48.83983024,1.611223385
2.961889162,4.703812311,-1.74555E-05,-0.003356946,,,3.572177885,0.388582013,-31.53196954,-78.12989956,4.641553525
2.966423068,4.802541541,-2.87463E-05,-0.003361525,,,3.574996652,3.21748868,-9.386058621,-30.90312651,0.120860633
2.966423068,4.802541541,-2.87463E-05,-0.003361525,,,3.577174343,4.880381107,-4.521783663,-2.148133344,-0.214241247
2.970956975,4.90127077,-3.94684E-05,-0.003363136,,,3.577555668,3.346083887,-8.798392565,-28.71581322,-0.016663889
2.970956975,4.90127077,-3.94684E-05,-0.003363136,,,3.579191966,0.152188476,-34.28829668,-81.93336193,5.038749288
2.972400596,2.892817776,0.000188563,-0.002754437,,,3.58238817,4.489089872,-5.111010158,-9.076301363,-0.556879258
2.97468046,1.393043961,0.000198811,-0.001576226,,,3.585019418,4.974498636,-4.443106198,-0.458758771,-0.050903406
2.975490881,5,-4.94943E-05,-0.003361781,,,3.5868599,0.648232213,-28.65578167,-73.84072477,4.223846659
2.975490881,5,-4.94943E-05,-0.003361781,,,3.587337256,4.547856859,-5.003529097,-8.044505733,-0.530568313
2.987600766,0.580986802,0.000108389,-0.000708928,,,3.587609568,2.547111727,-12.97381187,-42.20388492,1.022550986
2.987600766,0.580986802,0.000108389,-0.000708928,,,3.589719943,4.156047009,-5.890360365,-14.85698777,-0.560970112
2.987600766,0.580986802,0.000108389,-0.000708928,,,3.590463809,2.60694812,-12.60933921,-41.18903413,0.937783521
2.987600766,0.580986802,0.000108389,-0.000708928,,,3.590778873,0.570118405,-29.48671608,-75.10631988,4.365148958
2.987600766,0.580986802,0.000108389,-0.000708928,,,3.60069652,2.41418892,-13.78172808,-44.40684366,1.238638282
2.987600766,0.580986802,0.000108389,-0.000708928,,,3.601216159,4.759393209,-4.692720794,-4.305378938,-0.36733888
2.993800383,0.290493401,5.86455E-05,-0.000363216,,,3.603989176,4.350641952,-5.405396935,-11.48100166,-0.571030126
3,0,0,0,,,3.605001218,4.061323639,-6.151975339,-16.47446861,-0.519562694
3.000276629,1.9530953,0.000222927,-0.002081722,,,3.605529215,2.871614693,-11.08787847,-36.69161442,0.583583718
3.000276629,1.9530953,0.000222927,-0.002081722,,,3.605607579,3.77946269,-7.056531019,-21.29758096,-0.367787066
3.006474033,2.725541404,0.000202652,-0.002649581,,,3.613658344,4.009340598,-6.302444778,-17.35827165,-0.490979374
3.006474033,2.725541404,0.000202652,-0.002649581,,,3.61408487,2.694862653,-12.06042861,-39.65114517,0.838187206
3.00873915,4.178110472,4.82776E-05,-0.003276766,,,3.630327804,3.912210882,-6.59585866,-19.00213117,-0.427329535
3.021375487,4.445817524,1.30464E-05,-0.003324624,,,3.635295659,1.572425957,-19.87339831,-58.39237913,2.670663636
3.021375487,4.445817524,1.30464E-05,-0.003324624,,,3.638377983,1.821652569,-17.8807126,-54.22652856,2.246937461
3.024773639,1.046100356,0.000172193,-0.001222542,,,3.640643221,4.694577727,-4.811028492,-5.449979395,-0.416879249
3.029221611,1.603456761,0.000215638,-0.001772983,,,3.640653608,3.019322602,-10.27123855,-34.12266138,0.430546123
3.029221611,1.603456761,0.000215638,-0.001772983,,,3.641197225,3.551485405,-7.877561462,-25.12394784,-0.151165193
3.036392079,2.504196597,0.000216858,-0.002500582,,,3.642061217,0.92277683,-25.74596946,-69.14027093,3.827090476
3.058504367,0.745278177,0.000136658,-0.000894481,,,3.642882412,4.377818998,-5.348817115,-10.99002311,-0.544128787
3.058504367,0.745278177,0.000136658,-0.000894481,,,3.648384073,1.990600801,-16.59835415,-51.37378533,1.976240334
3.064838568,3.350252101,0.000153075,-0.002987459,,,3.650168133,0.689527183,-28.10876776,-72.94732036,4.253403911
3.064838568,3.350252101,0.000153075,-0.002987459,,,3.654650143,0.53346452,-29.77529893,-75.4846366,4.534914983
3.065923002,3.525745353,0.000133252,-0.003064032,,,3.659771208,0.306118708,-32.33232931,-79.16339667,4.93519226
3.066310125,2.28285179,0.000226898,-0.002338865,,,3.663232282,3.078946637,-9.945853658,-33.06892014,0.381735584
3.066310125,2.28285179,0.000226898,-0.002338865,,,3.667228347,4.666910191,-4.865830843,-5.933365346,-0.428154831
3.067007435,3.701238604,0.000111895,-0.003131853,,,3.67055499,3.202727523,-9.345262151,-30.96716521,0.241774727
3.068091868,3.876731856,8.93246E-05,-0.003190819,,,3.671460571,3.492433069,-8.085383012,-26.07383988,-0.064217517
3.068091868,3.876731856,8.93246E-05,-0.003190819,,,3.673865151,3.369069126,-8.597516379,-28.15404398,0.061808835
3.072759382,4.018844915,7.04778E-05,-0.003231652,,,3.674833216,2.239999469,-14.80613613,-47.12520697,1.60294093
3.072759382,4.018844915,7.04778E-05,-0.003231652,,,3.678559895,3.602111751,-7.648333005,-24.20669797,-0.156273399
3.073712805,3.163070997,0.000172895,-0.002895407,,,3.679906905,4.483502684,-5.14962355,-9.138652227,-0.504775127
3.073712805,3.163070997,0.000172895,-0.002895407,,,3.684075926,4.533006936,-5.067878294,-8.275359861,-0.488278164
3.074033908,0.435740102,8.7691E-05,-0.000536978,,,3.68678837,4.880381107,-4.684186204,-2.145391543,-0.201656215
3.074033908,0.435740102,8.7691E-05,-0.000536978,,,3.6890941,4.203336737,-5.743911835,-13.96668642,-0.492320184
3.079274153,4.703812311,-2.13909E-05,-0.003345814,,,3.695314104,2.974443223,-10.4292899,-34.75598919,0.551898039
3.079274153,4.703812311,-2.13909E-05,-0.003345814,,,3.701763143,2.804559171,-11.32067934,-37.59311885,0.78815318
3.080233525,0.145246701,3.15151E-05,-0.000183285,,,3.70636307,4.397404576,-5.312471795,-10.61795059,-0.498442596
3.08380806,4.802541541,-3.36775E-05,-0.003350219,,,3.707430826,1.859782424,-17.47243924,-53.3757953,2.27329856
3.08539572,4.286551967,3.39934E-05,-0.003292023,,,3.707673008,3.728056487,-7.163089,-22.0306875,-0.22731286
3.08539572,4.286551967,3.39934E-05,-0.003292023,,,3.71275716,1.943005931,-16.84035142,-51.97181301,2.139814805
3.088341966,4.90127077,-4.54045E-05,-0.003351635,,,3.717213606,0.64979427,-28.40944678,-73.36057142,4.432765926
3.092875873,5,-5.64368E-05,-0.003350057,,,3.717776643,0.571845416,-29.24561215,-74.63264659,4.572938083
3.095677239,1.210391731,0.000193973,-0.001389561,,,3.719619193,3.199231864,-9.304327397,-30.9239723,0.302971115
3.095677239,1.210391731,0.000193973,-0.001389561,,,3.721476883,3.074796905,-9.893909661,-33.01046947,0.455542035
3.10311194,4.583851167,-6.61356E-06,-0.003333534,,,3.722929354,3.365573467,-8.560889032,-28.11948846,0.121571478
3.10311194,4.583851167,-6.61356E-06,-0.003333534,,,3.723961402,1.403351151,-21.14854887,-60.91061823,3.08972228
3.107786242,2.995794625,0.000190703,-0.002802763,,,3.725918639,4.62961348,-4.948275122,-6.575962935,-0.424500454
3.121273409,1.77044307,0.000230413,-0.001918114,,,3.726808319,4.974498636,-4.708961429,-0.458662319,-0.047803929
3.129407968,0.909569552,0.000163304,-0.001073202,,,3.727324934,1.080374776,-24.068736,-66.24442682,3.672639772
3.129407968,0.909569552,0.000163304,-0.001073202,,,3.727987336,4.230513783,-5.668964378,-13.46992437,-0.464352543
3.139817666,2.110140584,0.000236229,-0.002200629,,,3.72899039,1.662489656,-18.97643833,-56.59009072,2.641486752
3.141859679,2.828518253,0.000206814,-0.002702576,,,3.729705171,3.488283337,-8.046211231,-26.04088883,0.005263907
3.149415952,4.12728641,5.66696E-05,-0.003251636,,,3.737578477,0.837835824,-26.42351832,-70.2031977,4.126598647
3.149415952,4.12728641,5.66696E-05,-0.003251636,,,3.738940723,3.586293666,-7.655457153,-24.37358619,-0.075087344
3.15021839,1.420804531,0.000215544,-0.001594836,,,3.739649332,3.899770097,-6.571100801,-19.08054221,-0.310725426
3.15021839,1.420804531,0.000215544,-0.001594836,,,3.743649486,0.388582013,-31.2380112,-77.52113145,4.942533761
3.153929321,0.588364017,0.00011739,-0.000713872,,,3.744960067,3.012506697,-10.17239957,-34.00118809,0.563119041
3.153929321,0.588364017,0.00011739,-0.000713872,,,3.747285142,0.152188476,-34.01322023,-81.32679859,5.358635587
3.16046705,0.290493401,6.29103E-05,-0.000361361,,,3.747768619,4.090661321,-6.013980869,-15.83492066,-0.400122984
3.16046705,0.290493401,6.29103E-05,-0.000361361,,,3.748976468,1.271986066,-22.26260018,-63.00051571,3.35982255
3.166666667,0,0,0,,,3.749693534,1.20313124,-22.88557141,-64.13699488,3.484606653
3.167132173,4.42458561,1.41599E-05,-0.003307122,,,3.75133334,4.851079059,-4.784580974,-2.665481221,-0.22957727
3.175933115,2.661241881,0.000220945,-0.00259498,,,3.758045579,4.028951739,-6.17847889,-16.87056674,-0.361870422
3.175933115,2.661241881,0.000220945,-0.00259498,,,3.75853673,3.714731618,-7.170448878,-22.17729164,-0.160197238
3.200311569,1.073860926,0.000188045,-0.001244946,,,3.759134253,2.144102254,-15.32430014,-48.47477225,1.867805149
3.200311569,1.073860926,0.000188045,-0.001244946,,,3.759822653,3.531517589,-7.846769259,-25.25846275,-0.000556741
3.201193051,4.802541541,-3.89844E-05,-0.003337701,,,3.772155902,4.283526003,-5.540411335,-12.52951668,-0.434941696
3.201193051,4.802541541,-3.89844E-05,-0.003337701,,,3.774652515,0.032444822,-35.44577276,-83.14291782,5.613587059
3.205726958,4.90127077,-5.17918E-05,-0.003338918,,,3.777918465,4.823411523,-4.827445327,-3.156216246,-0.254865276
3.205851162,2.439897073,0.00023476,-0.002442682,,,3.784786034,2.403533369,-13.5644237,-44.07239128,1.487106674
3.205851162,2.439897073,0.00023476,-0.002442682,,,3.787159261,1.69460956,-18.61838371,-55.86055271,2.666168985
3.209098451,3.266047846,0.000171308,-0.002934383,,,3.790513054,3.886445227,-6.580848646,-19.2365864,-0.245716285
3.209098451,3.266047846,0.000171308,-0.002934383,,,3.793318656,2.860744982,-10.89121967,-36.41994388,0.826079277
3.209098451,3.266047846,0.000171308,-0.002934383,,,3.793939163,4.122923462,-5.911384916,-15.23928121,-0.365238152
3.209098451,3.266047846,0.000171308,-0.002934383,,,3.794056377,0.804365533,-26.66064535,-70.54539794,4.276699899
3.209098451,3.266047846,0.000171308,-0.002934383,,,3.796826113,0.420913388,-30.77600016,-76.79613822,4.97890766
3.209098451,3.266047846,0.000171308,-0.002934383,,,3.798174385,2.684207102,-11.85633404,-39.35336581,1.081681002
3.210182884,3.441541098,0.000151064,-0.003014771,,,3.805141424,3.201091639,-9.195402253,-30.7040929,0.406468452
3.210182884,3.441541098,0.000151064,-0.003014771,,,3.80770044,3.329686845,-8.623279401,-28.54783776,0.263637601
3.210260865,5,-6.39137E-05,-0.003337113,,,3.808450919,4.387127452,-5.330514291,-10.73394825,-0.414850196
3.211267318,3.617034349,0.000128992,-0.003086498,,,3.811490849,4.750601379,-4.892979711,-4.438668557,-0.309235566
3.211267318,3.617034349,0.000128992,-0.003086498,,,3.811960479,4.470208928,-5.191436714,-9.308348971,-0.412287432
3.212351751,3.792527601,0.000105396,-0.003149458,,,3.813360983,2.104009192,-15.51417285,-48.97004247,2.007101342
3.212351751,3.792527601,0.000105396,-0.003149458,,,3.8161295,4.51971318,-5.11960653,-8.454533589,-0.403973268
3.213325206,1.937429379,0.000242592,-0.002055155,,,3.818426406,4.013133654,-6.1921219,-17.06493007,-0.287182981
3.213325206,1.937429379,0.000242592,-0.002055155,,,3.825734657,2.533328465,-12.6997393,-41.78854697,1.342439645
3.213436184,3.968020852,8.06198E-05,-0.003203539,,,3.828006488,4.619336356,-5.004038326,-6.727630655,-0.370537417
3.213436184,3.968020852,8.06198E-05,-0.003203539,,,3.828588898,2.593164858,-12.33905989,-40.7840549,1.256304648
3.213436184,3.968020852,8.06198E-05,-0.003203539,,,3.829969732,3.111331683,-9.5832642,-32.1446045,0.547061338
3.213436184,3.968020852,8.06198E-05,-0.003203539,,,3.830927611,4.969727079,-4.887997465,-0.54434047,-0.051850798
3.213436184,3.968020852,8.06198E-05,-0.003203539,,,3.832127,4.220030105,-5.665173874,-13.55693454,-0.358735571
3.213436184,3.968020852,8.06198E-05,-0.003203539,,,3.835139521,2.892808967,-10.6653473,-35.77492509,0.837500565
3.213436184,3.968020852,8.06198E-05,-0.003203539,,,3.835890342,3.408853066,-8.261325772,-27.16430244,0.21537732
3.224832921,0.752655391,0.000147324,-0.000898016,,,3.837756588,4.101740186,-5.946819558,-15.54846345,-0.307778168
3.225030838,4.682580397,-2.37542E-05,-0.003328896,,,3.843682083,1.443786524,-20.58732446,-59.81795707,3.189301667
3.231152405,4.265320052,3.7071E-05,-0.003272843,,,3.844193331,3.71695991,-7.094842104,-21.99736229,-0.058439379
3.240362462,0.443117316,9.52738E-05,-0.000542825,,,3.847869551,1.041693306,-24.21750881,-66.44116604,3.925190176
3.242270188,1.58779084,0.000233928,-0.001746835,,,3.849751543,3.058859534,-9.810166868,-32.97033871,0.639021904
3.243171888,3.098771474,0.000191202,-0.002846428,,,3.851966871,4.053659961,-6.06487306,-16.34048263,-0.26855816
3.243171888,3.098771474,0.000191202,-0.002846428,,,3.853495079,3.624397186,-7.41292564,-23.52831718,0.031132319
3.246900192,0.145246701,3.37737E-05,-0.000182292,,,3.856851281,0.189468824,-33.37140028,-80.30397221,5.503855115
3.246900192,0.145246701,3.37737E-05,-0.000182292,,,3.861260766,3.445272821,-8.087846763,-26.50274357,0.211133472
3.248868626,4.562619252,-7.3194E-06,-0.003315682,,,3.862487077,4.936882672,-4.924673502,-1.132096951,-0.099302665
3.248868626,4.562619252,-7.3194E-06,-0.003315682,,,3.868913556,3.849708102,-6.642631752,-19.73537359,-0.126108846
3.27121517,1.238152301,0.000210622,-0.001409567,,,3.86903801,4.202185694,-5.692932877,-13.82118479,-0.311809101
3.27121517,1.238152301,0.000210622,-0.001409567,,,3.871085641,3.578254805,-7.566035157,-24.2646667,0.095541616
3.27121517,1.238152301,0.000210622,-0.001409567,,,3.87907565,4.354041564,-5.381050264,-11.24628201,-0.341589407
3.27121517,1.238152301,0.000210622,-0.001409567,,,3.88205813,4.812927844,-4.928527832,-3.333226151,-0.231680373
3.27121517,1.238152301,0.000210622,-0.001409567,,,3.882240446,0.643051051,-28.17990366,-72.84725677,4.718102532
3.27121517,1.238152301,0.000210622,-0.001409567,,,3.882714739,0.57738834,-28.88520392,-73.9167456,4.840987218
3.277245325,2.931495102,0.000209431,-0.002750922,,,3.883527167,1.850733545,-17.24022434,-52.93523154,2.532365681
3.277245325,2.931495102,0.000209431,-0.002750922,,,3.888013974,1.920839529,-16.70775189,-51.75771076,2.418978659
3.279358702,2.267185868,0.00024708,-0.002311144,,,3.89793169,2.95496126,-10.26181831,-34.57167929,0.839816875
3.295172637,4.106054495,6.16245E-05,-0.003230763,,,3.901361391,2.355638064,-13.68609617,-44.50526169,1.722661515
3.295172637,4.106054495,6.16245E-05,-0.003230763,,,3.901850954,1.475906428,-20.21022616,-59.07112957,3.216945449
3.295736522,0.916946766,0.000175427,-0.001075251,,,3.903421585,4.643132757,-5.007925367,-6.292157423,-0.311638467
3.311318762,2.76421873,0.000225696,-0.002648,,,3.904347451,1.008223016,-24.43472638,-66.77414903,4.074116536
3.311318762,2.76421873,0.000225696,-0.002648,,,3.906981316,0.765778206,-26.84740649,-70.74247894,4.529842024
3.312888858,4.403353695,1.55829E-05,-0.003287546,,,3.908147574,1.72309034,-18.18229265,-54.95974506,2.788920871
3.320257875,0.595741231,0.000126738,-0.000718331,,,3.908529122,4.943415129,-4.99184052,-1.015204741,-0.084850667
3.320257875,0.595741231,0.000126738,-0.000718331,,,3.909206072,0.457775041,-30.15516037,-75.75705483,5.10936108
3.32311195,4.90127077,-5.86289E-05,-0.003324878,,,3.910027908,0.2218002,-32.88726959,-79.57029964,5.546883411
3.32311195,4.90127077,-5.86289E-05,-0.003324878,,,3.910642558,4.456044697,-5.211750024,-9.492799047,-0.322030257
3.326795604,0.297870615,6.88567E-05,-0.000368227,,,3.910688469,3.93152703,-6.36979644,-18.30283722,-0.125851541
3.327645856,5,-7.19286E-05,-0.003322842,,,3.915591644,4.514811684,-5.133704231,-8.489640715,-0.319325627
3.330106086,3.207537061,0.000185905,-0.002893364,,,3.915876794,3.243518521,-8.87570289,-29.73417787,0.505295336
3.330106086,3.207537061,0.000185905,-0.002893364,,,3.91598666,4.336197154,-5.405888127,-11.51734908,-0.297489855
3.332643385,3.335040954,0.000171262,-0.002954246,,,3.918029375,2.705066114,-11.56453526,-38.65985191,1.215649328
3.332643385,3.335040954,0.000171262,-0.002954246,,,3.92084312,4.818430669,-4.959153337,-3.232388019,-0.212806091
3.333333333,0,0,0,,,3.923474784,1.278007588,-21.89279938,-62.25581675,3.606911867
3.333333333,0,0,0,,,3.924326021,1.196269342,-22.63081138,-63.60009291,3.75780981
3.333333333,0,0,0,,,3.926705134,3.500520484,-7.806129379,-25.44260836,0.24497012
3.333727818,3.510534206,0.00014912,-0.003030906,,,3.929193781,2.051935502,-15.68843649,-49.44147276,2.257104083
3.334321986,1.754777149,0.00024974,-0.001890764,,,3.929790649,4.976259536,-5.045953856,-0.426893393,-0.036502804
3.334812252,3.686027457,0.000125127,-0.003098903,,,3.936043405,0.038515569,-35.09062291,-82.40229477,5.929950658
3.335896685,3.861520709,9.96064E-05,-0.003158127,,,3.938942352,3.965665661,-6.255805435,-17.69025075,-0.109122936
3.335896685,3.861520709,9.96064E-05,-0.003158127,,,3.942206575,4.648635581,-5.014461102,-6.1847716,-0.281254836
3.345392198,2.596942357,0.000239713,-0.002537801,,,3.943537463,4.126307343,-5.838266009,-15.00675795,-0.189044631
3.345392198,2.596942357,0.000239713,-0.002537801,,,3.94529386,4.199823476,-5.669729093,-13.77656553,-0.218373842
3.345392198,2.596942357,0.000239713,-0.002537801,,,3.954459982,4.434861421,-5.237191634,-9.821272542,-0.273279693
3.345392198,2.596942357,0.000239713,-0.002537801,,,3.95550795,4.085805426,-5.930669107,-15.66584042,-0.153441506
3.345392198,2.596942357,0.000239713,-0.002537801,,,3.955588121,2.315545002,-13.85801821,-44.98819135,1.864508971
3.345392198,2.596942357,0.000239713,-0.002537801,,,3.959850239,2.737130099,-11.32605353,-38.00157672,1.229675959
3.346949737,4.781309626,-4.29972E-05,-0.00331958,,,3.961633689,4.521344141,-5.125215596,-8.352393934,-0.274034782
3.352866243,2.094474663,0.000256528,-0.002172318,,,3.962000985,3.761153487,-6.85464297,-21.0467587,0.064952528
3.360407124,3.993142343,8.01921E-05,-0.003193883,,,3.973209123,3.166212076,-9.153280181,-30.86747752,0.679066082
3.360407124,3.993142343,8.01921E-05,-0.003193883,,,3.975819572,3.297391856,-8.574315561,-28.69186693,0.529636557
3.363266968,1.40513861,0.000232848,-0.001568289,,,3.981588877,4.303424925,-5.447491392,-12.00482887,-0.209005748
3.363266968,1.40513861,0.000232848,-0.001568289,,,3.98403971,4.469887943,-5.185013997,-9.208459755,-0.245180134
3.364179522,3.040260689,0.000206056,-0.002802784,,,3.991371494,1.15653643,-22.87259513,-63.9865857,3.933952246
3.366640123,1.081238141,0.000201416,-0.001245423,,,3.992245033,0.923376152,-25.09798837,-67.8139594,4.371197704
3.366640123,1.081238141,0.000201416,-0.001245423,,,3.992527627,1.316137443,-21.4276135,-61.35406187,3.641937051
3.370787524,4.661348482,-2.59522E-05,-0.003309825,,,3.992990935,3.113739927,-9.369900169,-31.68053355,0.772610786
3.37690909,4.244088138,4.05411E-05,-0.003251508,,,3.993419062,4.776413401,-4.99949598,-3.959230571,-0.203124985
3.37690909,4.244088138,4.05411E-05,-0.003251508,,,3.994342932,2.834609191,-10.75176822,-36.28491634,1.14272923
3.391161475,0.760032605,0.000158342,-0.000900936,,,3.996720006,0.303844809,-31.75441531,-77.88811058,5.556955002
3.394625311,4.541387338,-7.76248E-06,-0.003295633,,,3.996813318,1.554015534,-19.38777154,-57.41524667,3.21860613
3.394625311,4.541387338,-7.76248E-06,-0.003295633,,,3.999169905,0.076896465,-34.49401465,-81.52391932,5.987899034
3.398252959,2.872984317,0.000224324,-0.002704757,,,4.001189996,3.333811611,-8.393243913,-28.02580593,0.526642637
3.406691016,0.45049453,0.000103182,-0.000548267,,,4.001443653,4.009841701,-6.099278688,-16.85831831,-0.047748343
3.413228746,0.152623915,3.7851E-05,-0.000190299,,,4.001927568,2.51642949,-12.53315684,-41.51228171,1.619175476
3.413228746,0.152623915,3.7851E-05,-0.000190299,,,4.004412124,4.855546502,-5.035075278,-2.572909976,-0.152027375
3.418899739,2.424231152,0.000255131,-0.002412952,,,4.005315866,2.587461864,-12.10791033,-40.32877259,1.516769872
3.418899739,2.424231152,0.000255131,-0.002412952,,,4.005882674,3.681562851,-7.081522099,-22.27521547,0.193696791
3.426373784,1.921763458,0.000262712,-0.002026437,,,4.008667061,2.997388141,-9.904833585,-33.55585891,0.944424235
3.426373784,1.921763458,0.000262712,-0.002026437,,,4.009934702,4.645148378,-5.026285116,-6.220149088,-0.225000652
3.432326396,2.705707945,0.000240413,-0.002599423,,,4.022322452,4.883214038,-5.068599606,-2.082686637,-0.125235564
3.432326396,2.705707945,0.000240413,-0.002599423,,,4.023473236,3.635420469,-7.223988371,-22.9983472,0.260106308
3.442143577,4.131175986,5.94057E-05,-0.003218645,,,4.025434499,4.98000146,-5.181641593,-0.359260661,-0.025958258
3.445030848,5,-8.04807E-05,-0.00330713,,,4.027510606,4.366002488,-5.325075914,-10.91352856,-0.168262627
3.445030848,5,-8.04807E-05,-0.00330713,,,4.031099739,3.816979085,-6.626889549,-19.99029433,0.124084286
3.445030848,5,-8.04807E-05,-0.00330713,,,4.034881489,3.414352159,-8.031272067,-26.61281247,0.491155826
3.45111372,3.149026276,0.000201008,-0.002850389,,,4.039146599,2.215469401,-14.38131838,-46.34409007,2.150438982
3.45111372,3.149026276,0.000201008,-0.002850389,,,4.042623158,4.551848159,-5.088816474,-7.787071361,-0.189191745
3.451180256,1.237498644,0.000225352,-0.001399653,,,4.044512789,3.544714061,-7.526969308,-24.44367948,0.375655647
3.451180256,1.237498644,0.000225352,-0.001399653,,,4.052428036,4.3955082,-5.272472656,-10.397804,-0.143647839
3.453651019,3.276530169,0.000186212,-0.002912993,,,4.054620503,4.229041569,-5.563444797,-13.15547342,-0.080060306
3.455318766,1.572124919,0.000252543,-0.001718962,,,4.054961828,2.625525338,-11.81399334,-39.53517749,1.535570679
3.455318766,1.572124919,0.000252543,-0.001718962,,,4.056404175,1.194184462,-22.40596629,-63.09810473,3.965060624
3.456188319,3.404034062,0.000170144,-0.002971114,,,4.058411544,1.272047229,-21.69857968,-61.80920797,3.824154891
3.456188319,3.404034062,0.000170144,-0.002971114,,,4.059353623,3.851117716,-6.503834116,-19.37253725,0.142705813
3.457272752,3.579527313,0.000146017,-0.003044005,,,4.061497587,4.508502385,-5.127244961,-8.503246183,-0.159942409
3.458357185,3.755020565,0.000120021,-0.003108235,,,4.0631265,0.038380896,-34.85790945,-81.86215452,6.190201967
3.458357185,3.755020565,0.000120021,-0.003108235,,,4.066300655,2.46883462,-12.72170803,-42.07390466,1.790270709
3.458645543,4.38212178,1.73743E-05,-0.003265672,,,4.072811227,2.780409698,-10.92973138,-36.9282358,1.338744256
3.458645543,4.38212178,1.73743E-05,-0.003265672,,,4.077430787,4.906193129,-5.134030429,-1.674667148,-0.090701155
3.462065076,0.92432398,0.000187897,-0.001076543,,,4.077536604,3.211216763,-8.828052004,-29.83736061,0.784301172
3.462065076,0.92432398,0.000187897,-0.001076543,,,4.078691653,0.765239974,-26.52699726,-70.03655386,4.812933042
3.468868635,4.880038856,-6.45047E-05,-0.003305387,,,4.079508912,1.007673966,-24.11192062,-66.06287016,4.351142268
3.468868635,4.880038856,-6.45047E-05,-0.003305387,,,4.080916409,0.457236809,-29.83371494,-75.04311315,5.414533949
3.482867625,3.8866422,0.000100202,-0.00314754,,,4.084954625,4.164101788,-5.685068817,-14.18341754,-0.004574433
3.485187157,2.981749904,0.000221307,-0.002757269,,,4.085189369,0.22125115,-32.56354093,-78.83610501,5.882507993
3.486586429,0.603118445,0.000136419,-0.000722262,,,4.088666653,1.459557453,-20.01216106,-58.5970991,3.528495484
3.486586429,0.603118445,0.000136419,-0.000722262,,,4.091282531,1.707063482,-17.98750039,-54.51321524,3.091381896
3.49240728,2.251519947,0.000267789,-0.002280768,,,4.0913399,2.990968959,-9.827969689,-33.41078581,1.080838992
3.49240728,2.251519947,0.000267789,-0.002280768,,,4.091857185,4.681532936,-5.017764061,-5.567022538,-0.146625189
3.492706422,4.760077711,-4.68746E-05,-0.003299125,,,4.094531083,3.921287087,-6.279316464,-18.15196019,0.150000706
3.492706422,4.760077711,-4.68746E-05,-0.003299125,,,4.096925111,4.123599872,-5.7689462,-14.83026725,0.034524173
3.493124158,0.30524783,7.51048E-05,-0.000374773,,,4.098468719,4.441826958,-5.19488478,-9.58399407,-0.093821493
3.493124158,0.30524783,7.51048E-05,-0.000374773,,,4.101019788,3.148926556,-9.076119595,-30.79054116,0.896519471
3.5,0,0,0,,,4.104352713,0.642354832,-27.76417132,-71.9297044,5.094141808
3.507378064,4.018263834,7.92068E-05,-0.003181713,,,4.104827005,0.576692121,-28.46900025,-72.99688389,5.223200016
3.507378064,4.018263834,7.92068E-05,-0.003181713,,,4.107654085,3.254451015,-8.606432135,-29.04194097,0.782073729
3.516544209,4.640116567,-2.78994E-05,-0.003288365,,,4.110770296,4.039059795,-5.961434522,-16.19249109,0.103163776
3.516544209,4.640116567,-2.78994E-05,-0.003288365,,,4.111648887,2.619162202,-11.76625161,-39.44329929,1.633920929
3.519260594,2.814473532,0.000239502,-0.002656814,,,4.112328738,2.035908643,-15.49544747,-49.0191615,2.559782471
3.519260594,2.814473532,0.000239502,-0.002656814,,,4.117740744,3.728394178,-6.835230433,-21.25992592,0.330477776
3.52388003,4.269209629,3.63817E-05,-0.003236833,,,4.120417508,1.830002342,-16.9887318,-52.37132505,2.922576981
3.527919451,2.586377234,0.000256921,-0.002512404,,,4.120563385,2.775049506,-10.89086384,-36.85596784,1.422128616
3.527919451,2.586377234,0.000256921,-0.002512404,,,4.12136541,3.378893414,-8.079938508,-26.96621207,0.666129844
3.540381996,4.520155423,-7.8685E-06,-0.003273146,,,4.121979118,4.269785474,-5.456290452,-12.394268,0.005355083
3.540381996,4.520155423,-7.8685E-06,-0.003273146,,,4.124904316,1.900108326,-16.4568279,-51.20061596,2.809140481
3.540381996,4.520155423,-7.8685E-06,-0.003273146,,,4.131744671,4.732815887,-5.01924482,-4.678539085,-0.109043102
3.540381996,4.520155423,-7.8685E-06,-0.003273146,,,4.133823775,3.547520289,-7.43188108,-24.17648713,0.51650784
3.540381996,4.520155423,-7.8685E-06,-0.003273146,,,4.134291271,1.03938799,-23.70427107,-65.30323982,4.378590108
3.540381996,4.520155423,-7.8685E-06,-0.003273146,,,4.137084866,2.498331607,-12.43499133,-41.33285729,1.856630549
3.543232054,1.404484953,0.000248683,-0.001556638,,,4.138622674,3.6736181,-6.995009261,-22.10563697,0.410853882
3.546605209,1.080584484,0.000215171,-0.001236054,,,4.139065253,0.188806327,-32.84910922,-79.11629919,6.050246699
3.547370563,1.739111228,0.000269417,-0.001861387,,,4.139092058,2.985608767,-9.791462442,-33.34618,1.165010431
3.547370563,1.739111228,0.000269417,-0.001861387,,,4.14240382,2.299196027,-13.66524674,-44.57799877,2.176440452
3.553714643,5,-8.8873E-05,-0.003291192,,,4.144166078,1.422416651,-20.2272703,-58.9706627,3.682289663
3.55749003,0.76740982,0.00016969,-0.000903186,,,4.146896548,4.299291186,-5.392335316,-11.87645046,0.032758782
3.55749003,0.76740982,0.00016969,-0.000903186,,,4.14859225,4.598912632,-5.037245821,-6.93011628,-0.068964317
3.565914821,2.078808742,0.000277277,-0.002141491,,,4.149654998,4.760483424,-5.028510087,-4.201438862,-0.093216031
3.565914821,2.078808742,0.000277277,-0.002141491,,,4.151281208,3.768920484,-6.681996593,-20.5212997,0.354335722
3.572121355,3.090515491,0.000216563,-0.002805446,,,4.15133721,2.567010996,-12.00792965,-40.15506165,1.775598845
3.572121355,3.090515491,0.000216563,-0.002805446,,,4.156713257,4.98000146,-5.320069588,-0.359115983,-0.017959971
3.57301957,0.457871744,0.000111405,-0.000553268,,,4.157706847,3.14256342,-9.035582348,-30.72137878,0.997196648
3.57301957,0.457871744,0.000111405,-0.000553268,,,4.161685685,3.247037393,-8.575578942,-29.00375537,0.879845448
3.574658654,3.218019384,0.000201692,-0.002869692,,,4.166880657,3.372648312,-8.055894165,-26.9397003,0.748811318
3.577195953,3.345523277,0.000185429,-0.002929496,,,4.167466678,4.555566858,-5.058249604,-7.638071816,-0.031134811
3.57755243,4.880038856,-7.14558E-05,-0.003289329,,,4.170877569,3.88092305,-6.339527201,-18.6537338,0.305287379
3.579733253,3.47302717,0.000167872,-0.002984818,,,4.171500345,4.367443602,-5.271749443,-10.72906583,0.044403322
3.579733253,3.47302717,0.000167872,-0.002984818,,,4.175868909,4.811312664,-5.064588696,-3.321573358,-0.071723228
3.579895412,0.152623915,4.03373E-05,-0.000189051,,,4.178919642,4.906193129,-5.188628822,-1.670678943,-0.054638097
3.580817686,3.648520421,0.000141676,-0.003053898,,,4.179339021,3.541275187,-7.410973781,-24.15838321,0.599633726
3.580817686,3.648520421,0.000141676,-0.003053898,,,4.180391202,4.478211516,-5.124393769,-8.902979479,0.015475653
3.589114517,4.156297477,5.654E-05,-0.003203846,,,4.188255263,3.197440005,-8.757051625,-29.73054875,0.982887877
3.601390217,4.760077711,-5.23941E-05,-0.003282899,,,4.18928667,4.195688363,-5.567941994,-13.5020968,0.152213588
3.601426992,2.413666029,0.00027287,-0.002387058,,,4.191330105,0.803120264,-25.92068105,-68.9134171,4.926230961
3.605328125,3.780142056,0.000121662,-0.003096628,,,4.19188346,4.03326544,-5.928020697,-16.13478885,0.244389059
3.605616483,4.407243271,1.11073E-05,-0.003248344,,,4.192654273,3.666204478,-6.973032526,-22.09210196,0.509950116
3.605616483,4.407243271,1.11073E-05,-0.003248344,,,4.194099841,0.419668119,-30.03343008,-75.14087024,5.692104034
3.606194792,2.923239119,0.000236895,-0.002709882,,,4.201117864,3.757299971,-6.678518226,-20.59201472,0.450066082
3.606194792,2.923239119,0.000236895,-0.002709882,,,4.202031165,2.324043758,-13.41105782,-43.93644903,2.233592871
3.614853649,2.695142821,0.000257415,-0.002572514,,,4.203496953,4.147608138,-5.660816129,-14.25818217,0.201668402
3.625228004,4.640116567,-3.20199E-05,-0.003271937,,,4.210865302,1.657529382,-18.16876498,-54.81784823,3.366344551
3.625228004,4.640116567,-3.20199E-05,-0.003271937,,,4.212859071,3.871134139,-6.337332318,-18.71857516,0.386339771
3.629838564,3.911763691,0.000100281,-0.003134266,,,4.218333315,2.809466215,-10.57159759,-35.9493107,1.535805627
3.631145342,1.236844987,0.00024034,-0.001388615,,,4.218866398,4.230714886,-5.484978523,-12.88479163,0.187672335
3.631145342,1.236844987,0.00024034,-0.001388615,,,4.221608999,3.709360043,-6.810502292,-21.31796032,0.525229561
3.635283852,1.571471262,0.000269253,-0.001705408,,,4.224261337,1.193424182,-22.09966191,-62.37059129,4.231982046
3.639422361,1.906097536,0.000283197,-0.001995365,,,4.224648228,0.032331376,-34.61772296,-81.22242782,6.535545318
3.639422361,1.906097536,0.000283197,-0.001995365,,,4.225048137,4.638335445,-4.997594361,-6.224091461,0.021564675
3.639422361,1.906097536,0.000283197,-0.001995365,,,4.225952308,1.259014375,-21.50481006,-61.28717061,4.112299362
3.639422361,1.906097536,0.000283197,-0.001995365,,,4.230465552,4.336407019,-5.294160619,-11.15458217,0.159348901
3.639422361,1.906097536,0.000283197,-0.001995365,,,4.232657444,2.972245165,-9.733632696,-33.24832715,1.340474254
3.639422361,1.906097536,0.000283197,-0.001995365,,,4.233864961,4.023476529,-5.927080924,-16.20810389,0.326017245
3.641603485,4.509965515,-8.55087E-06,-0.003256503,,,4.237067024,2.066929015,-15.06970518,-47.99694798,2.707984397
3.641603485,4.509965515,-8.55087E-06,-0.003256503,,,4.238709688,2.705828057,-11.09637862,-37.56219085,1.717278471
3.642030163,0.923670323,0.000200436,-0.001067887,,,4.241966132,4.479688506,-5.097464341,-8.81304295,0.115721363
3.652914983,0.610495659,0.000146414,-0.000725619,,,4.246112464,0.834834288,-25.49272123,-68.13974525,4.955108464
3.652914983,0.610495659,0.000146414,-0.000725619,,,4.246309665,4.671179851,-4.984918773,-5.666003812,0.038084706
3.652914983,0.610495659,0.000146414,-0.000725619,,,4.247454158,4.586879247,-5.00814426,-7.056023434,0.07725198
3.652914983,0.610495659,0.000146414,-0.000725619,,,4.247975724,0.387223297,-30.29363553,-75.41246248,5.855766241
3.652914983,0.610495659,0.000146414,-0.000725619,,,4.248379221,3.385058349,-7.920839979,-26.49569864,0.878156341
3.652914983,0.610495659,0.000146414,-0.000725619,,,4.249211882,1.072136684,-23.17557477,-64.24211878,4.501385373
3.654349004,4.043385325,7.76336E-05,-0.003166774,,,4.249434864,0.151656334,-33.07899691,-79.19852731,6.341699126
3.654349004,4.043385325,7.76336E-05,-0.003166774,,,4.253183629,4.760483424,-5.007493895,-4.166896011,0.010898663
3.659790825,0.30524783,7.98865E-05,-0.000372201,,,4.253333609,4.135987625,-5.659250614,-14.35319193,0.299181151
3.662398438,5,-9.77112E-05,-0.00327381,,,4.256119024,4.976259536,-5.369978299,-0.425319673,-0.010312052
3.666666667,0,0,0,,,4.25712984,4.883214038,-5.157732851,-2.066661424,-0.018549313
3.67085097,4.29433112,3.14769E-05,-0.003219304,,,4.257143698,1.379799691,-20.38688949,-59.16257679,3.939435078
3.67085097,4.29433112,3.14769E-05,-0.003219304,,,4.258010521,3.515420251,-7.427665001,-24.35690511,0.764208886
3.674934533,2.240954823,0.00028581,-0.002254552,,,4.262126965,4.221482614,-5.481691791,-12.95936459,0.272055317
3.686236225,4.880038856,-7.8738E-05,-0.003271794,,,4.266364727,1.62038858,-18.36755746,-55.17712469,3.5212137
3.693128989,3.032004706,0.000232505,-0.002758532,,,4.266907474,4.328629919,-5.289586545,-11.22499449,0.229851659
3.693128989,3.032004706,0.000232505,-0.002758532,,,4.266986496,3.297341939,-8.247750072,-27.85760115,1.006784678
3.693128989,3.032004706,0.000232505,-0.002758532,,,4.269332901,0.648063632,-27.37697791,-71.07618617,5.364782742
3.693128989,3.032004706,0.000232505,-0.002758532,,,4.269895938,0.570114778,-28.21193493,-72.34181639,5.522864677
3.693128989,3.032004706,0.000232505,-0.002758532,,,4.271850384,3.082437885,-9.16644193,-31.32227976,1.268903441
3.695666288,3.159508599,0.000217643,-0.002824332,,,4.272142417,2.66189682,-11.28988133,-38.14865015,1.838429683
3.695666288,3.159508599,0.000217643,-0.002824332,,,4.278408054,4.471911406,-5.08910858,-8.896568447,0.184106347
3.698203588,3.287012492,0.000201267,-0.002885732,,,4.282383893,4.174835578,-5.563127627,-13.67203976,0.33440899
3.698203588,3.287012492,0.000201267,-0.002885732,,,4.289269736,3.598950797,-7.11052842,-22.91748254,0.744661941
3.700740887,3.414516385,0.000183474,-0.002942694,,,4.28936823,3.255561992,-8.393602236,-28.46006746,1.094539363
3.700740887,3.414516385,0.000183474,-0.002942694,,,4.290714725,4.577646975,-4.992774222,-7.168355673,0.153254673
3.701787847,2.803908408,0.000256196,-0.002628254,,,4.291453126,3.875370379,-6.271028634,-18.46256498,0.52988503
3.703278186,3.542020278,0.000164365,-0.00299518,,,4.294007103,4.746950551,-4.982758469,-4.379262671,0.065908841
3.703278186,3.542020278,0.000164365,-0.00299518,,,4.294771615,4.655114844,-4.961313868,-5.898275079,0.117674525
3.703278186,3.542020278,0.000164365,-0.00299518,,,4.29628497,1.808249489,-16.8501866,-51.96570947,3.242276675
3.703278186,3.542020278,0.000164365,-0.00299518,,,4.296694369,2.091776746,-14.79910895,-47.33257311,2.766156989
3.703278186,3.542020278,0.000164365,-0.00299518,,,4.297583819,3.128664933,-8.927255305,-30.48392984,1.258659098
3.703278186,3.542020278,0.000164365,-0.00299518,,,4.297953314,4.869681166,-5.121186538,-2.294304353,0.012872576
3.706837972,4.397053364,1.1597E-05,-0.003230602,,,4.301611304,1.891472995,-16.21940467,-50.58110973,3.108927987
3.710074012,4.760077711,-5.81492E-05,-0.003265161,,,4.30379539,2.460648906,-12.40650044,-41.29350189,2.193198864
3.710074012,4.760077711,-5.81492E-05,-0.003265161,,,4.304514025,3.793953173,-6.490163889,-19.73743506,0.613582656
3.710446704,2.57581211,0.000274478,-0.002484441,,,4.304580974,4.960194529,-5.333103897,-0.711621652,-0.003941018
3.710446704,2.57581211,0.000274478,-0.002484441,,,4.307692339,3.993143087,-5.956302451,-16.53316749,0.485158167
3.72319714,1.403831296,0.00026476,-0.001543641,,,4.313660675,3.635304268,-6.969363686,-22.26167927,0.759097089
3.726449493,4.62992666,-3.40295E-05,-0.003254444,,,4.315801308,2.518503186,-12.04432554,-40.3033383,2.126621037
3.726570296,1.079930826,0.000229144,-0.001225675,,,4.316770655,4.613038165,-4.959561224,-6.567194564,0.179165431
3.72733565,1.73845757,0.000286769,-0.001845751,,,4.318839757,2.332022307,-13.17640184,-43.32185367,2.41822434
3.72733565,1.73845757,0.000286769,-0.001845751,,,4.321775388,3.753569441,-6.595374334,-20.33926201,0.677897875
3.727788626,3.673641912,0.000144363,-0.003041196,,,4.328855954,4.983934993,-5.405809553,-0.288087317,-0.000304563
3.727788626,3.673641912,0.000144363,-0.003041196,,,4.333631266,0.305048333,-31.06681171,-76.32347716,6.184570637
3.736085457,4.181418968,5.2999E-05,-0.00318609,,,4.333852533,0.531599208,-28.50127742,-72.65546146,5.713533851
3.736085457,4.181418968,5.2999E-05,-0.00318609,,,4.334365582,0.685711664,-26.84891869,-70.14584519,5.400216582
3.737455116,0.766756163,0.000180759,-0.000895418,,,4.335658501,0.914000506,-24.52968896,-66.41335777,4.948293055
3.737455116,0.766756163,0.000180759,-0.000895418,,,4.342085514,4.066435329,-5.763958711,-15.28148296,0.511347758
3.739686237,0.457871744,0.000118282,-0.000549281,,,4.342437964,4.330963668,-5.25028448,-11.06264137,0.37741432
3.739686237,0.457871744,0.000118282,-0.000549281,,,4.348475966,2.904387554,-9.912187871,-33.92112027,1.637583166
3.742824974,4.499775608,-9.10617E-06,-0.003238492,,,4.351328822,4.441731581,-5.087380573,-9.281821201,0.340036303
3.742824974,4.499775608,-9.10617E-06,-0.003238492,,,4.351612911,1.532847639,-18.92714396,-56.20920727,3.816069603
3.746562079,0.152623915,4.28734E-05,-0.00018769,,,4.35336491,3.189081735,-8.598618162,-29.31146841,1.290600269
3.748442074,2.068243618,0.000295325,-0.002115137,,,4.356144022,3.441597604,-7.597598762,-25.24216392,1.021931115
3.748442074,2.068243618,0.000295325,-0.002115137,,,4.359707338,4.253875064,-5.373004526,-12.25831738,0.450529745
3.752299065,3.805263547,0.000122814,-0.003082159,,,4.362168886,1.764159275,-17.07240612,-52.37879288,3.427717552
3.752299065,3.805263547,0.000122814,-0.003082159,,,4.36655695,4.099160145,-5.67802337,-14.70410943,0.543987452
3.771082234,5,-0.000106977,-0.00325487,,,4.367359011,4.747834206,-4.93269653,-4.328091812,0.168552666
3.772072459,4.284141212,3.30864E-05,-0.003200454,,,4.370409743,4.842714671,-5.034595818,-2.742156552,0.093973237
3.776809504,3.936885182,9.98064E-05,-0.003118034,,,4.372395515,1.920969983,-15.88381438,-49.77268891,3.178218528
3.776809504,3.936885182,9.98064E-05,-0.003118034,,,4.372420761,3.685942969,-6.759800859,-21.27712288,0.832285913
3.783954245,2.403100905,0.000290907,-0.002358701,,,4.375155748,2.603398575,-11.46732532,-38.67855606,2.107034117
3.788722045,2.912673995,0.000253175,-0.002679523,,,4.376771409,4.214580441,-5.437495594,-12.84798617,0.506123204
3.788722045,2.912673995,0.000253175,-0.002679523,,,4.380277468,4.510150736,-4.994558865,-8.149295865,0.362243623
3.794920021,4.880038856,-8.63274E-05,-0.003252664,,,4.388052842,4.681455175,-4.895707373,-5.395888688,0.258199125
3.794920021,4.880038856,-8.63274E-05,-0.003252664,,,4.392021895,2.152461549,-14.2307541,-45.91437402,2.831224907
3.797380902,2.684577698,0.000274746,-0.002542804,,,4.3951111,4.900973211,-5.130554609,-1.744702205,0.06794263
3.801319943,4.068506816,7.54401E-05,-0.003148784,,,4.397531684,0.569290395,-27.95954817,-71.72302128,5.747332079
3.801319943,4.068506816,7.54401E-05,-0.003148784,,,4.39754146,3.917482781,-6.089326979,-17.51537196,0.715753945
3.801319943,4.068506816,7.54401E-05,-0.003148784,,,4.39860777,0.645453996,-27.14222617,-70.47860982,5.592210693
3.801319943,4.068506816,7.54401E-05,-0.003148784,,,4.402226514,4.539963637,-4.954971489,-7.646210372,0.389748415
3.801319943,4.068506816,7.54401E-05,-0.003148784,,,4.406383371,3.370477093,-7.811023093,-26.21164362,1.19349799
3.801319943,4.068506816,7.54401E-05,-0.003148784,,,4.406584437,4.646010538,-4.885957757,-5.95030386,0.32230378
3.802924613,3.074071535,0.000236226,-0.002765056,,,4.407052956,2.828611543,-10.21330129,-34.90939209,1.848805399
3.802924613,3.074071535,0.000236226,-0.002765056,,,4.415559906,4.920971751,-5.163763629,-1.394692657,0.063180145
3.805461912,3.201575428,0.000220236,-0.002828942,,,4.416208246,3.503459077,-7.318957258,-24.05266877,1.08157723
3.807999211,3.329079321,0.000202693,-0.002888438,,,4.417368709,4.986467127,-5.384117043,-0.24363123,0.010313929
3.808059461,4.386863456,1.22396E-05,-0.003211439,,,4.41752804,0.151656334,-32.72286466,-78.36579052,6.674307871
3.81053651,3.456583214,0.000183694,-0.002943507,,,4.419447325,0.387223297,-29.93586847,-74.56291138,6.169296777
3.81053651,3.456583214,0.000183694,-0.002943507,,,4.421664978,2.99466211,-9.383176864,-32.17926326,1.658794213
3.811110429,1.23619133,0.00025553,-0.001376362,,,4.422480166,4.146644926,-5.548737542,-13.82184375,0.639399724
3.811110429,1.23619133,0.00025553,-0.001376362,,,4.423855929,1.065001794,-22.90829225,-63.50055145,4.80074027
3.811295501,4.749887804,-6.16509E-05,-0.003246755,,,4.424266598,0.827555998,-25.21302056,-67.37795571,5.266888225
3.815248938,1.570817605,0.000286179,-0.001690265,,,4.428550732,1.798420313,-16.69802617,-51.49885508,3.481433166
3.815248938,1.570817605,0.000286179,-0.001690265,,,4.428765105,3.328697147,-7.947486118,-26.80007122,1.282332794
3.820086075,3.585838809,0.000163411,-0.002993612,,,4.431787745,1.372664801,-20.12899793,-58.42996919,4.237695341
3.820086075,3.585838809,0.000163411,-0.002993612,,,4.433451026,1.872007514,-16.14015802,-50.27684398,3.365275658
3.821003158,1.890206689,0.000300803,-0.001964785,,,4.440485684,2.784680306,-10.39332768,-35.47676056,1.972321373
3.821003158,1.890206689,0.000300803,-0.001964785,,,4.440599186,3.539812547,-7.172148311,-23.39107938,1.098159742
3.821995249,0.923016666,0.00021315,-0.001058349,,,4.441742341,3.848426779,-6.240571743,-18.48707449,0.855610507
3.821995249,0.923016666,0.00021315,-0.001058349,,,4.442081593,0.032331376,-34.15614003,-80.14546081,6.98666583
3.823168113,0.609961994,0.000155259,-0.00071939,,,4.442300293,4.368449586,-5.142612205,-10.28619306,0.575849681
3.823168113,0.609961994,0.000155259,-0.00071939,,,4.444518862,1.613110289,-18.11187369,-54.4396271,3.828869721
3.826457491,0.30524783,8.47499E-05,-0.000369394,,,4.447398413,3.040889158,-9.137576324,-31.33477116,1.651238886
3.826457491,0.30524783,8.47499E-05,-0.000369394,,,4.450168442,1.184194996,-21.75867915,-61.41607285,4.617494204
3.827670982,4.619736752,-3.59173E-05,-0.003235496,,,4.451859414,1.249785189,-21.16653618,-60.33524978,4.497412215
3.833333333,0,0,0,,,4.454284906,4.581574543,-4.883327607,-6.917445257,0.475108671
3.837306945,4.17122906,5.56652E-05,-0.003166141,,,4.458307939,3.968566544,-5.925352713,-16.5408485,0.815817618
3.837306945,4.17122906,5.56652E-05,-0.003166141,,,4.459003704,3.808043047,-6.338119963,-19.07495627,0.921006037
3.844046463,4.4895857,-9.51271E-06,-0.003219014,,,4.461129711,3.245620989,-8.24119305,-28.00663131,1.438213735
3.844046463,4.4895857,-9.51271E-06,-0.003219014,,,4.462602542,4.778509719,-4.854927556,-3.770437252,0.292114741
3.844596515,3.717460444,0.000141957,-0.003037261,,,4.466328674,4.936521542,-5.152780606,-1.122334785,0.077169816
3.857461786,2.2303897,0.000304072,-0.002225996,,,4.469183432,3.121224123,-8.753845826,-29.96209344,1.597401543
3.857461786,2.2303897,0.000304072,-0.002225996,,,4.470554262,3.612120322,-6.909223745,-22.14135869,1.09788183
3.869106954,3.849082079,0.000118903,-0.003075852,,,4.473089495,0.418973674,-29.46058281,-73.76918787,6.198821102
3.873293948,4.273951304,3.48603E-05,-0.00318014,,,4.473111586,2.04521223,-14.8330521,-47.26841938,3.148305417
3.873293948,4.273951304,3.48603E-05,-0.00318014,,,4.478383061,0.793643663,-25.44603279,-67.6483985,5.426042388
3.879766029,5,-0.000116645,-0.003234255,,,4.478509095,3.728055371,-6.550071575,-20.27928064,1.022011319
3.879766029,5,-0.000116645,-0.003234255,,,4.482779375,4.00129136,-5.834030793,-15.9576464,0.851943641
3.879766029,5,-0.000116645,-0.003234255,,,4.488882136,4.30236418,-5.225980904,-11.224712,0.716545805
3.879766029,5,-0.000116645,-0.003234255,,,4.491781108,2.286375229,-13.19630263,-43.27457471,2.799191231
3.8843151,2.793343285,0.000273194,-0.002596642,,,4.497951687,4.415358365,-5.045072218,-9.444277551,0.682729879
3.8843151,2.793343285,0.000273194,-0.002596642,,,4.500437733,1.641971171,-17.78459322,-53.68310224,3.873748884
3.892973958,2.565246987,0.000292308,-0.00245369,,,4.505298398,2.698319914,-10.75893061,-36.57990115,2.217137351
3.892973958,2.565246987,0.000292308,-0.00245369,,,4.505946208,4.263069557,-5.286678555,-11.79875548,0.77575696
3.893617393,3.980703713,9.43392E-05,-0.003109353,,,4.508193806,3.428834331,-7.493698057,-24.91428345,1.345549575
3.893617393,3.980703713,9.43392E-05,-0.003109353,,,4.511253093,4.721134834,-4.769735893,-4.65027611,0.464946528
3.89614151,4.869848948,-9.15259E-05,-0.003233283,,,4.512329286,4.070984621,-5.662027718,-14.78318944,0.882925294
3.89614151,4.869848948,-9.15259E-05,-0.003233283,,,4.514365141,4.817922257,-4.817040212,-3.099149575,0.325362189
3.898517668,2.954740824,0.00025781,-0.002686583,,,4.519900733,4.445171266,-4.989975908,-8.936455842,0.720633468
3.903162227,1.403177639,0.000281013,-0.001529189,,,4.522342495,4.184130845,-5.425636925,-12.98942646,0.851719745
3.903162227,1.403177639,0.000281013,-0.001529189,,,4.524543649,2.003967128,-15.03793481,-47.67972931,3.307631492
3.906535382,1.079277169,0.000243277,-0.001214211,,,4.52750001,2.401603096,-12.42443907,-41.24433846,2.690340701
3.906535382,1.079277169,0.000243277,-0.001214211,,,4.527970219,0.188806327,-32.02591325,-77.18866052,6.808346981
3.907708246,0.766222498,0.000191371,-0.000887477,,,4.529784688,4.685690198,-4.752421256,-5.187447911,0.549390968
3.908916446,1.722566723,0.000303775,-0.001815048,,,4.53011099,2.924373313,-9.577756323,-32.85155018,1.963975414
3.90928095,4.376673548,1.30484E-05,-0.003190758,,,4.534763384,3.379236943,-7.647332158,-25.5993801,1.451727468
3.90928095,4.376673548,1.30484E-05,-0.003190758,,,4.534813947,4.837920796,-4.806320425,-2.767237121,0.32632135
3.909718794,4.097476953,7.12838E-05,-0.003135872,,,4.537148531,3.471989896,-7.314343948,-24.12295313,1.367235165
3.909718794,4.097476953,7.12838E-05,-0.003135872,,,4.538352512,1.022880514,-23.08417009,-63.58356376,5.072030888
3.909939368,0.45733808,0.00012528,-0.000544215,,,4.538916391,4.986467127,-5.223512255,-0.24041588,0.026545342
3.91251699,4.739697896,-6.50382E-05,-0.003226811,,,4.539505928,2.459457377,-12.0590207,-40.25584181,2.62704492
3.91251699,4.739697896,-6.50382E-05,-0.003226811,,,4.542235453,3.892708651,-6.060945555,-17.48612208,1.053212519
3.912720236,3.116138364,0.000239429,-0.002769475,,,4.545256377,4.508292548,-4.892502126,-7.912810856,0.746467427
3.912720236,3.116138364,0.000239429,-0.002769475,,,4.546911408,3.259475697,-8.091818311,-27.44888794,1.602450087
3.913228746,0.152623915,4.54509E-05,-0.000186211,,,4.548097099,2.557751498,-11.47510193,-38.6362426,2.500211649
3.913228746,0.152623915,4.54509E-05,-0.000186211,,,4.548227319,1.405909174,-19.63403031,-57.27673987,4.37250066
3.915257535,3.243642257,0.00022227,-0.002831401,,,4.548819738,3.582771347,-6.936298593,-22.3319032,1.294523438
3.917794834,3.37114615,0.000203516,-0.002888951,,,4.549528438,4.612250056,-4.778521774,-6.299308226,0.676985672
3.917794834,3.37114615,0.000203516,-0.002888951,,,4.557329128,3.098564768,-8.748180246,-29.95945873,1.806199691
3.9273444,3.500401745,0.000183375,-0.002941541,,,4.558521473,4.87231659,-4.817486059,-2.190289642,0.29518924
3.928892471,4.609546844,-3.76521E-05,-0.003214989,,,4.559109543,3.732736673,-6.476655362,-19.93796925,1.199813603
3.928892471,4.609546844,-3.76521E-05,-0.003214989,,,4.560294639,4.936521542,-4.980371725,-1.116657748,0.148109617
3.93002287,2.052352771,0.000313458,-0.00208256,,,4.560659405,2.979249899,-9.280308414,-31.84252397,1.957589035
3.936893965,3.629657341,0.000161699,-0.002989492,,,4.561231222,0.572636752,-27.57951342,-70.80074064,6.025942826
3.936893965,3.629657341,0.000161699,-0.002989492,,,4.562137697,0.636795598,-26.8941661,-69.75188763,5.891832817
3.945267952,4.479395792,-9.75033E-06,-0.003197967,,,4.562726587,3.844768723,-6.170213398,-18.17095303,1.131473112
3.945267952,4.479395792,-9.75033E-06,-0.003197967,,,4.569799312,2.872222108,-9.779371464,-33.50637364,2.112485865
3.945267952,4.479395792,-9.75033E-06,-0.003197967,,,4.571285737,3.931556604,-5.948089968,-16.7879428,1.098961089
3.945267952,4.479395792,-9.75033E-06,-0.003197967,,,4.581612389,0.220556704,-31.52327151,-76.38603352,6.839752784
3.945267952,4.479395792,-9.75033E-06,-0.003197967,,,4.583225389,4.342015246,-5.116513037,-10.39248673,0.933763963
3.945705796,4.200199197,5.03257E-05,-0.003151576,,,4.584066291,3.38000367,-7.595577784,-25.39310438,1.559279266
3.961404404,3.761278976,0.000138738,-0.003030702,,,4.584648789,4.039530691,-5.693853235,-15.06697182,1.0732666
3.966481498,2.392535782,0.000309159,-0.002327681,,,4.585249848,0.453979384,-28.82511533,-72.59467511,6.324359774
3.966481498,2.392535782,0.000309159,-0.002327681,,,4.586890019,3.464687027,-7.293359102,-24.0477375,1.484849929
3.977368764,4.905924731,-0.000105327,-0.003216501,,,4.588443289,3.260121574,-8.044754883,-27.2678096,1.691921155
3.977368764,4.905924731,-0.000105327,-0.003216501,,,4.589501839,0.754928392,-25.61250437,-67.67538738,5.692767195
3.979908155,2.674012574,0.000292323,-0.002510053,,,4.590721072,3.576619541,-6.920498605,-22.27377995,1.395073755
3.979908155,2.674012574,0.000292323,-0.002510053,,,4.592468974,0.988968179,-23.30074763,-63.83905172,5.228397378
3.980393607,5,-0.000125923,-0.003213563,,,4.59291553,1.788928177,-16.49209134,-50.80609179,3.78508193
3.981692798,4.302921441,2.82847E-05,-0.003163911,,,4.597043451,1.85091671,-16.02281686,-49.77928982,3.689460862
3.985914843,3.89290061,0.000114124,-0.003066851,,,4.597601162,4.185888591,-5.388244766,-12.7634458,1.037964115
3.985914843,3.89290061,0.000114124,-0.003066851,,,4.598861009,3.099210645,-8.696769399,-29.7692064,1.894091661
3.991075515,1.235537673,0.000270854,-0.001362802,,,4.601010877,3.726584868,-6.463798526,-19.8877279,1.302530483
3.991075515,1.235537673,0.000270854,-0.001362802,,,4.601018708,4.753749224,-4.629296352,-4.047033114,0.623944928
3.991075515,1.235537673,0.000270854,-0.001362802,,,4.602153001,2.218433433,-13.46290079,-43.81862875,3.111573487
3.991075515,1.235537673,0.000270854,-0.001362802,,,4.603482317,4.295368211,-5.187084476,-11.06136481,1.006561483
3.991075515,1.235537673,0.000270854,-0.001362802,,,4.603615138,0.038380896,-33.7094618,-79.18253828,7.306423402
3.991075515,1.235537673,0.000270854,-0.001362802,,,4.60414619,1.434770056,-19.29066309,-56.50049056,4.416012819
3.992248379,0.922483001,0.000225302,-0.001048546,,,4.6072382,3.422298189,-7.421796629,-24.63390103,1.570619358
3.993421244,0.60942833,0.000164193,-0.000712629,,,4.609281318,4.377406437,-5.047227807,-9.787506405,0.986422558
3.993421244,0.60942833,0.000164193,-0.000712629,,,4.609962312,2.980016626,-9.215822637,-31.60920637,2.060556848
3.993744245,4.775773679,-7.75969E-05,-0.0032114,,,4.612468075,3.837465854,-6.157340305,-18.11873588,1.255401051
3.994110723,2.835410114,0.000278732,-0.002604261,,,4.613910781,1.668224973,-17.38293116,-52.65001725,4.026141185
3.996710622,0.304714165,8.96397E-05,-0.000365645,,,4.616902901,2.73811579,-10.39546735,-35.42274104,2.387063356
3.996829735,1.554926757,0.000302312,-0.001659664,,,4.617058519,4.476463312,-4.892745683,-8.256479822,0.957563686
4,0,0,0,,,4.617956555,1.171242858,-21.56014647,-60.7202556,4.921579991
4,0,0,0,,,4.619077693,3.922772342,-5.942010723,-16.77120994,1.220848158
4,0,0,0,,,4.619963924,1.249105625,-20.86046857,-59.43847118,4.779843863
4.002016244,4.00967385,9.08591E-05,-0.003095817,,,4.622584552,4.610935343,-4.708588134,-6.197608712,0.874228008
4.002583954,1.874315841,0.000318484,-0.001932256,,,4.623017748,4.711672545,-4.614035999,-4.668152,0.753723009
4.002583954,1.874315841,0.000318484,-0.001932256,,,4.624907872,4.032130987,-5.689623105,-15.05881583,1.177874989
4.008313291,2.996807653,0.00026194,-0.002691485,,,4.625293688,4.777489688,-4.58583499,-3.647266735,0.639940597
4.010119725,4.645622627,-4.89796E-05,-0.003200894,,,4.630668489,4.837920796,-4.588798833,-2.70469925,0.518024805
4.0176798,4.405643685,5.17568E-06,-0.003172855,,,4.630995144,4.983934993,-4.965692342,-0.28873401,0.053258989
4.0176798,4.405643685,5.17568E-06,-0.003172855,,,4.632962129,4.920971751,-4.727217705,-1.374223811,0.271025017
4.018117645,4.126447089,6.65387E-05,-0.00312082,,,4.633273559,1.958993722,-15.18015468,-47.83582999,3.579270806
4.018117645,4.126447089,6.65387E-05,-0.00312082,,,4.63490003,2.889040325,-9.614041496,-32.9369293,2.227366803
4.022515859,3.158205193,0.000242071,-0.002771663,,,4.637860245,4.178488887,-5.385741314,-12.7648785,1.145751539
4.022515859,3.158205193,0.000242071,-0.002771663,,,4.639768896,3.87662152,-6.042210758,-17.41733933,1.299053051
4.025053159,3.285709086,0.000223699,-0.002831584,,,4.644514614,2.941958257,-9.350230795,-32.05250243,2.181625904
4.025053159,3.285709086,0.000223699,-0.002831584,,,4.651274272,4.286583949,-5.181880435,-11.07121763,1.137999045
4.026495206,4.515471575,-1.98802E-05,-0.003185165,,,4.653585065,2.17718833,-13.65353358,-44.21091862,3.273790093
4.026495206,4.515471575,-1.98802E-05,-0.003185165,,,4.655942726,3.248650594,-8.018292513,-27.15907762,1.854932608
4.034602724,3.414964682,0.000203837,-0.002886548,,,4.658416658,4.370581138,-5.037314831,-9.772928901,1.123756855
4.039042582,2.214498852,0.000322512,-0.002191158,,,4.658449244,4.470713803,-4.87583412,-8.250111723,1.075412714
4.044152289,3.544220277,0.000182296,-0.002936915,,,4.663975277,4.605185834,-4.679084796,-6.207614968,0.997719109
4.053701854,3.673475873,0.000159177,-0.002982653,,,4.663996447,3.124253728,-8.515223962,-29.08130386,2.008600598
4.053701854,3.673475873,0.000159177,-0.002982653,,,4.667100263,3.583264133,-6.837062683,-21.87394557,1.570074181
4.054104647,4.229169333,4.43619E-05,-0.003134806,,,4.667294289,0.076072083,-33.08455507,-78.22281645,7.346121219
4.074971499,4.811849461,-9.10065E-05,-0.003194422,,,4.668811948,4.837920796,-4.505991491,-2.703743533,0.608841167
4.074971499,4.811849461,-9.10065E-05,-0.003194422,,,4.669146622,0.300587385,-30.37993173,-74.6037066,6.821018133
4.075501211,2.554681863,0.000310321,-0.002419926,,,4.670574167,4.777489688,-4.502718477,-3.619348007,0.773416246
4.075501211,2.554681863,0.000310321,-0.002419926,,,4.671105589,4.920971751,-4.579211569,-1.365980063,0.319029494
4.075501211,2.554681863,0.000310321,-0.002419926,,,4.671299849,3.332468889,-7.683857064,-25.77585353,1.804837592
4.075501211,2.554681863,0.000310321,-0.002419926,,,4.671742573,2.752283154,-10.24880834,-34.92881115,2.483052849
4.075501211,2.554681863,0.000310321,-0.002419926,,,4.672153088,4.704847247,-4.547116561,-4.693722218,0.909657225
4.075501211,2.554681863,0.000310321,-0.002419926,,,4.672264253,2.556286495,-11.30662701,-38.04435052,2.751754279
4.075501211,2.554681863,0.000310321,-0.002419926,,,4.675055096,3.699199183,-6.488155832,-20.04022608,1.501954025
4.076788512,1.078743504,0.000256744,-0.001202381,,,4.676275622,4.983934993,-4.800030382,-0.287382711,0.063054836
4.076788512,1.078743504,0.000256744,-0.001202381,,,4.677699266,0.90592968,-23.9313299,-64.70904146,5.535086713
4.077961377,0.765688833,0.000202059,-0.000878828,,,4.680152684,4.326405686,-5.102650351,-10.38870863,1.202457441
4.077996342,4.905924731,-0.000113335,-0.003194291,,,4.682198743,1.13098519,-21.80438371,-61.00919407,5.105517698
4.078212293,3.805097508,0.000134654,-0.003021347,,,4.685291431,3.503887698,-7.074456419,-23.03675564,1.679888996
4.078212293,3.805097508,0.000134654,-0.003021347,,,4.686345769,1.283366663,-20.4375468,-58.50015819,4.829500381
4.080192498,0.456804415,0.000132335,-0.000538749,,,4.689933157,3.0446609,-8.828620758,-30.2148289,2.157953657
4.081021184,5,-0.000135479,-0.003191219,,,4.690819448,3.36809703,-7.535115963,-25.1330064,1.816026679
4.083481876,0.15209025,4.79546E-05,-0.000183935,,,4.693162379,2.351557495,-12.48383081,-41.20313349,3.088982742
4.083481876,0.15209025,4.79546E-05,-0.000183935,,,4.694085615,1.508042135,-18.52560531,-54.7991758,4.442792278
4.084743023,1.387286791,0.000295993,-0.00149892,,,4.695434526,4.746923925,-4.454546832,-4.002471662,0.904507621
4.084743023,1.387286791,0.000295993,-0.00149892,,,4.701172005,4.036274933,-5.644911063,-14.75059091,1.375586281
4.089703779,2.716079403,0.000298748,-0.002518261,,,4.702432372,3.468180104,-7.177525252,-23.5207984,1.752233064
4.089703779,2.716079403,0.000298748,-0.002518261,,,4.703695949,3.772118197,-6.26976559,-18.80223121,1.525097675
4.090091649,4.331891577,2.10474E-05,-0.003145413,,,4.707414723,2.420236884,-12.04684666,-40.02946971,3.017728101
4.090091649,4.331891577,2.10474E-05,-0.003145413,,,4.711185214,4.149421158,-5.411960545,-12.99105113,1.355663819
4.090497243,1.706675875,0.000320766,-0.001782563,,,4.717881329,3.958079129,-5.807973144,-15.8909517,1.457423401
4.091346979,4.681698409,-6.10723E-05,-0.003185221,,,4.719039394,3.012601215,-8.936799363,-30.57969985,2.260909268
4.094313694,3.921870747,0.000111314,-0.003052662,,,4.726693669,3.805102225,-6.169955973,-18.20631031,1.564309518
4.098907054,4.441719467,-4.54368E-06,-0.003159875,,,4.727103926,2.570453858,-11.15060483,-37.53217413,2.846272009
4.103906347,2.877476943,0.000283776,-0.002609674,,,4.730345818,0.037691187,-33.41132697,-78.47278019,7.567390431
4.103906347,2.877476943,0.000283776,-0.002609674,,,4.733032771,2.092907402,-14.09359897,-45.12707076,3.55758843
4.10772246,4.551547357,-3.07105E-05,-0.003170771,,,4.735311226,3.919202507,-5.887733442,-16.42358812,1.523795797
4.10772246,4.551547357,-3.07105E-05,-0.003170771,,,4.737440468,4.87231659,-4.210452815,-2.08268359,0.66793222
4.110415094,4.038643986,8.67992E-05,-0.003080048,,,4.739213634,4.936521542,-4.297791558,-1.072465362,0.369092008
4.111603666,2.036461923,0.00033165,-0.002047729,,,4.739407275,4.481323406,-4.819808933,-7.900570304,1.310109725
4.118108915,3.038874482,0.000265518,-0.002694104,,,4.741048161,4.219857325,-5.268808595,-11.83057557,1.413868331
4.118108915,3.038874482,0.000265518,-0.002694104,,,4.743679336,4.585280915,-4.641878689,-6.340107596,1.257261728
4.126516495,4.155417225,6.1181E-05,-0.003103485,,,4.745220522,3.195175617,-8.135679622,-27.58862497,2.118064956
4.126516495,4.155417225,6.1181E-05,-0.003103485,,,4.746835019,1.16713716,-21.35573212,-60.03789618,5.146686705
4.132311483,3.200272022,0.000244104,-0.00277149,,,4.747503039,3.41577102,-7.315156193,-24.138814,1.908673011
4.132311483,3.200272022,0.000244104,-0.00277149,,,4.748974676,1.241655865,-20.68871253,-58.81039673,5.012551026
4.132311483,3.200272022,0.000244104,-0.00277149,,,4.754217891,2.302595026,-12.69742833,-41.65083053,3.28440469
4.132311483,3.200272022,0.000244104,-0.00277149,,,4.755337091,0.217744831,-31.14987088,-75.43732013,7.176783317
4.132311483,3.200272022,0.000244104,-0.00277149,,,4.755551734,0.451222911,-28.47655488,-71.65835872,6.63266472
4.132311483,3.200272022,0.000244104,-0.00277149,,,4.757561244,4.837920796,-4.173149796,-2.566173336,0.855604382
4.141861048,3.329527618,0.000224658,-0.002828714,,,4.759803724,0.752171919,-25.28785798,-66.73209631,5.986282495
4.141861048,3.329527618,0.000224658,-0.002828714,,,4.760734263,2.867413807,-9.560657147,-32.65679987,2.529853887
4.148062295,2.376644934,0.000327681,-0.0022903,,,4.761611165,4.411595718,-4.926252527,-8.887295916,1.406520648
4.148062295,2.376644934,0.000327681,-0.0022903,,,4.761663688,4.986467127,-4.37491924,-0.2390299,0.087156464
4.151410613,3.458783213,0.000203392,-0.00288138,,,4.762534085,2.764774569,-10.06640486,-34.26636553,2.66333127
4.151410613,3.458783213,0.000203392,-0.00288138,,,4.765374815,4.253402439,-5.199846502,-11.25021059,1.473474184
4.160960178,3.588038809,0.000180403,-0.002929458,,,4.766193676,0.986156306,-22.98774151,-62.87421473,5.524824532
4.160960178,3.588038809,0.000180403,-0.002929458,,,4.76776218,3.627900341,-6.626262463,-20.7678384,1.788450967
4.16250151,0.921949336,0.000237504,-0.001037844,,,4.768833416,2.91199092,-9.338599083,-31.91328422,2.493619187
4.16250151,0.921949336,0.000237504,-0.001037844,,,4.771495121,4.652114649,-4.498200364,-5.289942441,1.281862471
4.162503497,4.258139469,3.7753E-05,-0.003115684,,,4.772515441,2.437055102,-11.85388826,-39.40611945,3.128355771
4.162503497,4.258139469,3.7753E-05,-0.003115684,,,4.778410217,1.418324786,-19.12029318,-55.75796013,4.74695511
4.163674374,0.608894665,0.000173174,-0.000705303,,,4.778503163,4.812172748,-4.169018703,-2.964248427,1.019656851
4.163674374,0.608894665,0.000173174,-0.000705303,,,4.779921202,4.374383112,-4.9831587,-9.393717484,1.476462645
4.164237459,1.228463332,0.000284823,-0.001342258,,,4.781521617,0.569071175,-27.14074745,-69.58568105,6.415063905
4.164237459,1.228463332,0.000284823,-0.001342258,,,4.782428092,0.633230022,-26.46220604,-68.53502794,6.276770159
4.166666667,0,0,0,,,4.78293018,3.853916905,-6.016927979,-17.24143104,1.687626993
4.166963752,0.3041805,9.45574E-05,-0.000361634,,,4.784741366,1.652103717,-17.22114031,-51.92877759,4.359734179
4.166963752,0.3041805,9.45574E-05,-0.000361634,,,4.78678325,3.263297466,-7.828546454,-26.3266861,2.148382008
4.170509743,3.717294405,0.000155792,-0.00297292,,,4.791106986,4.687559286,-4.407448571,-4.723172085,1.298436011
4.170509743,3.717294405,0.000155792,-0.00297292,,,4.794998838,3.136400406,-8.320773182,-28.26395677,2.298583512
4.170509743,3.717294405,0.000155792,-0.00297292,,,4.800524668,2.973871814,-9.015664446,-30.77794756,2.49304863
4.170509743,3.717294405,0.000155792,-0.00297292,,,4.802326858,4.076828309,-5.519722357,-13.78984182,1.643000834
4.170509743,3.717294405,0.000155792,-0.00297292,,,4.804104143,1.942872465,-15.02372711,-47.12406381,3.928038226
4.170509743,3.717294405,0.000155792,-0.00297292,,,4.805332786,2.624206153,-10.74853412,-36.25656083,2.941496853
4.171318903,4.36796736,1.17518E-05,-0.003132216,,,4.806302849,3.298925607,-7.676564122,-25.67864166,2.161869575
4.172574234,4.717774192,-7.39565E-05,-0.003167909,,,4.808450564,0.185413455,-31.40602137,-75.6403011,7.355826335
4.172574234,4.717774192,-7.39565E-05,-0.003167909,,,4.813889812,1.768074868,-16.28565322,-49.87940544,4.223791621
4.175599076,4.811849461,-9.76621E-05,-0.003170523,,,4.815500519,3.561625918,-6.788074169,-21.57808857,1.961852864
4.178410531,1.539035909,0.000318337,-0.001627466,,,4.818017732,1.830063401,-15.81791395,-48.85540522,4.132275847
4.178410531,1.539035909,0.000318337,-0.001627466,,,4.818488595,2.332308363,-12.4199836,-40.81184215,3.373739649
4.178623919,4.905924731,-0.000121476,-0.003170292,,,4.820642111,1.016610074,-22.59545539,-62.04314068,5.556920638
4.180134309,4.47779525,-1.49373E-05,-0.003145244,,,4.822533802,2.39808905,-12.015055,-39.74278018,3.288715004
4.181648762,5,-0.000145259,-0.003167105,,,4.823615232,3.679891091,-6.441056033,-19.7296307,1.90126059
4.18416475,1.858424994,0.000336135,-0.001897671,,,4.824105075,3.104340722,-8.422260079,-28.61659381,2.402792294
4.18416475,1.858424994,0.000336135,-0.001897671,,,4.82529391,4.306770757,-5.085997344,-10.27411157,1.63868507
4.186611144,3.834067644,0.000132503,-0.003006489,,,4.826214344,4.936521542,-3.793348238,-1.0341542,0.560621019
4.186611144,3.834067644,0.000132503,-0.003006489,,,4.827849092,2.160743061,-13.49792864,-43.4923672,3.643333444
4.188949714,4.58762314,-4.22582E-05,-0.003154719,,,4.831167681,1.383188361,-19.32260962,-56.00547228,4.900765882
4.188949714,4.58762314,-4.22582E-05,-0.003154719,,,4.83264146,3.525918324,-6.88461687,-22.0483768,2.034019906
4.202712544,3.950840883,0.000107926,-0.003036155,,,4.835672436,4.751540578,-4.178909541,-3.715866001,1.368724152
4.202712544,3.950840883,0.000107926,-0.003036155,,,4.836780835,3.362296043,-7.420886193,-24.54930919,2.180198876
4.204539416,2.64879766,0.000315191,-0.002457743,,,4.844808706,4.527327605,-4.680346872,-6.964629067,1.620504698
4.204539416,2.64879766,0.000315191,-0.002457743,,,4.846612952,3.712875119,-6.337592635,-19.12598765,1.943774522
4.218741984,2.810195199,0.000301063,-0.002550819,,,4.848164955,3.460407227,-7.080290044,-22.98211804,2.126346771
4.218813945,4.067614122,8.21313E-05,-0.003061904,,,4.848728044,4.010536088,-5.637295825,-14.61725093,1.805143198
4.218813945,4.067614122,8.21313E-05,-0.003061904,,,4.858942503,4.125956384,-5.405110033,-12.85374374,1.797114218
4.220623379,2.198608005,0.000340986,-0.002153736,,,4.859754507,2.542190878,-11.12813986,-37.24548955,3.170665006
4.220623379,2.198608005,0.000340986,-0.002153736,,,4.866157941,3.971659466,-5.71236437,-15.13353036,1.872293358
4.232944552,2.971592739,0.000283467,-0.002636954,,,4.867104592,0.412596223,-28.64808047,-71.60416153,6.917642348
4.234915346,4.184387362,5.51862E-05,-0.003083719,,,4.871131093,3.208059644,-7.956909579,-26.76204847,2.41170136
4.234915346,4.184387362,5.51862E-05,-0.003083719,,,4.87239281,4.920971751,-3.488706677,-1.236703901,0.835108174
4.234915346,4.184387362,5.51862E-05,-0.003083719,,,4.872398158,0.787266213,-24.70199201,-65.46344828,6.102081381
4.234915346,4.184387362,5.51862E-05,-0.003083719,,,4.874201613,4.986467127,-3.262171249,-0.234916356,0.19204284
4.234915346,4.184387362,5.51862E-05,-0.003083719,,,4.875637264,3.782618063,-6.142040791,-17.94103075,1.986394431
4.234915346,4.184387362,5.51862E-05,-0.003083719,,,4.881748744,3.044793703,-8.611863166,-29.2402256,2.606918548
4.239161747,3.256331461,0.000243048,-0.002775832,,,4.881989576,2.185773041,-13.25486751,-42.76844385,3.717367018
4.239161747,3.256331461,0.000243048,-0.002775832,,,4.883269157,4.159501498,-5.335170217,-12.26964806,1.863686368
4.243730751,4.294215252,2.88844E-05,-0.003102238,,,4.884085033,3.894470281,-5.873748925,-16.21919789,1.957563019
4.243730751,4.294215252,2.88844E-05,-0.003102238,,,4.891780438,0.031750377,-33.07370485,-77.59663151,7.90872126
4.246974909,2.509422166,0.000329753,-0.00236259,,,4.892571115,2.737068441,-10.04264368,-33.98830117,2.992255469
4.246974909,2.509422166,0.000329753,-0.00236259,,,4.893334728,4.895223702,-3.398072628,-1.527117505,1.054064731
4.24714712,3.132990279,0.000262527,-0.002716089,,,4.894303002,3.250354163,-7.773604277,-25.98743438,2.429805753
4.24714712,3.132990279,0.000262527,-0.002716089,,,4.895676042,1.604672592,-17.40963302,-52.00972914,4.640923279
4.248214507,0.765155168,0.000212767,-0.000869431,,,4.897950953,4.471103474,-4.76770835,-7.65650946,1.825932001
4.248214507,0.765155168,0.000212767,-0.000869431,,,4.901889074,2.509366577,-11.25688331,-37.51717935,3.307693094
4.248711312,3.385587056,0.00022209,-0.00283033,,,4.902308875,4.577150375,-4.540633172,-6.110898863,1.790065943
4.249950457,1.071669164,0.000269424,-0.001182762,,,4.905683395,3.170001276,-8.071497622,-27.16891145,2.536401942
4.250148543,0.15209025,5.05748E-05,-0.000182205,,,4.908987921,3.344458936,-7.420000702,-24.46178373,2.383146336
4.250445628,0.45627075,0.000139412,-0.000532863,,,4.910432836,1.166809795,-21.05565041,-59.02422166,5.425167634
4.250445628,0.45627075,0.000139412,-0.000532863,,,4.910559445,3.608210777,-6.58508806,-20.42409336,2.188048139
4.252546157,4.404043142,1.80052E-06,-0.003117307,,,4.912235245,1.229583011,-20.49784913,-57.98987686,5.314087838
4.252546157,4.404043142,1.80052E-06,-0.003117307,,,4.916260989,4.433890869,-4.832952967,-8.151343937,1.902695997
4.257904967,1.380212451,0.000310964,-0.001476175,,,4.916435554,4.234177908,-5.191202437,-11.05684165,1.953598775
4.258260877,3.514842652,0.000199283,-0.002880275,,,4.918285248,0.148931051,-31.56758377,-75.54984774,7.65566108
4.261361563,4.513871032,-2.60192E-05,-0.003128892,,,4.919781958,1.966668548,-14.67840931,-46.03323253,4.118465353
4.261361563,4.513871032,-2.60192E-05,-0.003128892,,,4.920218065,0.380264848,-28.88285833,-71.79412617,7.08705748
4.267810442,3.644098248,0.000174725,-0.002925639,,,4.92192074,4.612595011,-4.445185401,-5.573023372,1.828923525
4.267810442,3.644098248,0.000174725,-0.002925639,,,4.923713608,3.471368579,-6.986207971,-22.44286526,2.32022141
4.270176969,4.623698923,-5.4538E-05,-0.003136942,,,4.924446311,4.81574553,-3.727657334,-2.63679461,1.538785572
4.270176969,4.623698923,-5.4538E-05,-0.003136942,,,4.926846593,0.817719981,-24.28918211,-64.616964,6.129867771
4.270176969,4.623698923,-5.4538E-05,-0.003136942,,,4.928940906,2.831575132,-9.529835117,-32.29967938,2.962796622
4.270176969,4.623698923,-5.4538E-05,-0.003136942,,,4.930561698,2.946165686,-8.992481353,-30.50420771,2.834793332
4.270176969,4.623698923,-5.4538E-05,-0.003136942,,,4.930695341,4.352774956,-4.976475406,-9.283797097,1.976132043
4.270176969,4.623698923,-5.4538E-05,-0.003136942,,,4.930907626,3.565821939,-6.693825436,-20.968777,2.273142813
4.272078039,1.690785028,0.000337631,-0.001748212,,,4.933099783,1.048778746,-22.08165403,-60.80194467,5.683951785
4.272078039,1.690785028,0.000337631,-0.001748212,,,4.936801806,4.693587269,-4.211165554,-4.386664751,1.817415084
4.273201811,4.717774192,-7.92637E-05,-0.003142172,,,4.937040059,2.876152245,-9.308003668,-31.55750928,2.930135807
4.273201811,4.717774192,-7.92637E-05,-0.003142172,,,4.937860266,3.647366443,-6.459104897,-19.69941863,2.241520761
4.275697766,3.759049424,0.000151476,-0.002962259,,,4.941554315,1.343228194,-19.46750239,-55.95050497,5.16382429
4.275697766,3.759049424,0.000151476,-0.002962259,,,4.944234489,3.241474718,-7.760401206,-25.85849683,2.567363695
4.276226654,4.811849461,-0.000104335,-0.003144689,,,4.944332112,4.053168108,-5.520836119,-13.6114701,2.090011048
4.276226654,4.811849461,-0.000104335,-0.003144689,,,4.94512223,0.560427202,-26.86873164,-68.70052585,6.712782798
4.279251497,4.905924731,-0.000129683,-0.003144379,,,4.946198316,0.636590804,-26.07125757,-67.45035241,6.545742452
4.279251497,4.905924731,-0.000129683,-0.003144379,,,4.948433505,1.569536166,-17.6010088,-52.23751804,4.795282821
4.28227634,5,-0.000155192,-0.003141102,,,4.949800867,3.754243558,-6.174701286,-18.03301865,2.218782244
4.28227634,5,-0.000155192,-0.003141102,,,4.951049306,3.336979052,-7.410244746,-24.35580577,2.501386877
4.28227634,5,-0.000155192,-0.003141102,,,4.953599724,3.192247726,-7.938320773,-26.56504918,2.637686513
4.291799167,3.875822663,0.000126857,-0.002993717,,,4.956018657,4.983934993,-1.84738876,-0.24245017,0.401405112
4.293184463,2.020571075,0.000349783,-0.002010519,,,4.956755657,3.076077742,-8.400516477,-28.34051662,2.760488941
4.293184463,2.020571075,0.000349783,-0.002010519,,,4.9607283,3.898927623,-5.833316946,-15.82317436,2.190777154
4.307900568,3.992595902,0.000100918,-0.003021281,,,4.965023316,4.007017286,-5.606009134,-14.20617068,2.17028874
4.319535993,2.331385237,0.000346524,-0.002231666,,,4.965774993,3.463888695,-6.978650872,-22.34087895,2.441953605
4.324001968,4.109369141,7.37307E-05,-0.003044937,,,4.969750579,2.32335652,-12.26266259,-40.04135775,3.709062909
4.324001968,4.109369141,7.37307E-05,-0.003044937,,,4.972599798,2.688181498,-10.19468731,-34.28302143,3.239303863
4.333333333,0,0,0,,,4.973158188,2.378768986,-11.92250163,-39.14396536,3.641065985
4.333577621,2.742913456,0.000318228,-0.002490067,,,4.973210524,4.092989845,-5.436708938,-12.91182842,2.176322842
4.333577621,2.742913456,0.000318228,-0.002490067,,,4.973922442,1.991698529,-14.42324961,-45.28684811,4.190007013
4.333630419,0.3041805,9.95296E-05,-0.000358041,,,4.977841262,1.746583849,-16.18748487,-49.18992914,4.568517141
4.333927504,0.608361,0.000182152,-0.000697384,,,4.980839113,3.556942494,-6.687173233,-20.85166371,2.4211285
4.333927504,0.608361,0.000182152,-0.000697384,,,4.980879016,4.95336923,-2.184218497,-0.776656508,0.954555409
4.333927504,0.608361,0.000182152,-0.000697384,,,4.982741556,1.82017105,-15.63376141,-47.97542767,4.464743359
4.333927504,0.608361,0.000182152,-0.000697384,,,4.985433658,3.639461152,-6.453163903,-19.58384099,2.385142217
4.333927504,0.608361,0.000182152,-0.000697384,,,4.986988787,2.210315182,-12.94668536,-41.72264334,3.903030879
4.333927504,0.608361,0.000182152,-0.000697384,,,4.989875836,3.747584283,-6.172026728,-17.94130795,2.343433766
4.3339302,4.221555159,4.64899E-05,-0.003065466,,,4.990789001,4.206430313,-5.227075884,-11.19825528,2.217669647
4.3339302,4.221555159,4.64899E-05,-0.003065466,,,4.99649665,4.836105617,-3.316221733,-2.377145134,1.745753463
4.335663454,0.914874996,0.000248664,-0.001019343,,,4.997119509,3.09481775,-8.282598384,-27.82044347,2.844923204
4.337399404,1.221388992,0.000298668,-0.001320483,,,4.997325572,4.518503542,-4.64154216,-6.754064881,2.183727471
4.337399404,1.221388992,0.000298668,-0.001320483,,,5.000803269,3.892268348,-5.83406143,-15.74092174,2.321069856
4.342745606,4.331383049,1.89301E-05,-0.003082362,,,5.002972811,2.470237664,-11.34665554,-37.51468695,3.586263312
4.34601201,3.312390899,0.000240994,-0.002777123,,,5.00469036,0.299566578,-29.58684022,-72.55843744,7.432407404
4.34601201,3.312390899,0.000240994,-0.002777123,,,5.008064323,3.591426041,-6.572284665,-20.19068301,2.479539105
4.347780189,2.904310996,0.00030142,-0.002577759,,,5.008173759,0.522046306,-27.13209268,-68.91278131,6.906005977
4.351561012,4.441210939,-9.45887E-06,-0.003095838,,,5.009234446,4.359839011,-4.947322751,-8.946075215,2.265166258
4.351572475,1.531961569,0.000334099,-0.001602297,,,5.010834592,0.672742773,-25.56002387,-66.43297033,6.574352513
4.353997384,3.189049717,0.000261878,-0.002719734,,,5.012478839,4.678090388,-4.203698896,-4.546006486,2.125345791
4.355561575,3.441646495,0.000218475,-0.002828833,,,5.012596708,3.999111995,-5.609894623,-14.11836576,2.330633312
4.360376418,4.55103883,-3.86537E-05,-0.003105864,,,5.014734364,2.655357198,-10.31422943,-34.53779838,3.379045307
4.360376418,4.55103883,-3.86537E-05,-0.003105864,,,5.015204241,0.895020985,-23.36217862,-62.76860713,6.11959365
4.361982757,3.065708535,0.000281079,-0.002658493,,,5.017650527,4.954875234,-1.591182159,-0.892455064,1.054195039
4.361982757,3.065708535,0.000281079,-0.002658493,,,5.019061598,4.47432809,-4.724201906,-7.319347226,2.280316613
4.364612223,4.65411411,-6.66074E-05,-0.003113247,,,5.019896618,2.94849956,-8.884144069,-29.94602737,3.05403218
4.364612223,4.65411411,-6.66074E-05,-0.003113247,,,5.020427549,4.083162648,-5.446757058,-12.86193296,2.341578527
4.36511114,3.570902091,0.000194077,-0.002875996,,,5.020607011,4.560580221,-4.489399326,-6.108497373,2.266478462
4.36511114,3.570902091,0.000194077,-0.002875996,,,5.027472308,4.837374248,-3.297385289,-2.487155635,1.911760329
4.365745547,1.842534146,0.000353636,-0.00186093,,,5.030563773,4.198152059,-5.236494262,-11.16771876,2.364080228
4.365745547,1.842534146,0.000353636,-0.00186093,,,5.032210066,1.487289776,-18.12270226,-53.00876369,5.082634295
4.365745547,1.842534146,0.000353636,-0.00186093,,,5.034077587,3.327210254,-7.376134655,-24.04804379,2.73609931
4.365745547,1.842534146,0.000353636,-0.00186093,,,5.039122529,4.03543562,-5.534025139,-13.47341602,2.414901836
4.365745547,1.842534146,0.000353636,-0.00186093,,,5.040470169,1.704873051,-16.40522638,-49.44177008,4.753108012
4.365745547,1.842534146,0.000353636,-0.00186093,,,5.043454497,4.679359018,-4.099226607,-4.484316883,2.274711031
4.367637066,4.74818938,-9.2613E-05,-0.003117494,,,5.045461707,3.425321438,-7.04348317,-22.49481882,2.695027032
4.370661909,4.842264649,-0.000119104,-0.003119037,,,5.047012261,1.849884387,-15.32041104,-47.07022886,4.546657986
4.372998465,3.685853267,0.000170859,-0.002914253,,,5.049009218,4.351560757,-4.959440955,-8.939588951,2.424556699
4.373686752,4.936339918,-0.00014604,-0.003117737,,,5.05192975,3.255245143,-7.615204087,-25.04190935,2.844076735
4.373686752,4.936339918,-0.00014604,-0.003117737,,,5.053022516,2.799953737,-9.538875765,-32.04567579,3.300780335
4.375444869,5,-0.000164444,-0.003115236,,,5.057378521,4.562086225,-4.531987009,-6.062343387,2.423724708
4.376013114,2.603537963,0.000334906,-0.00239844,,,5.058060159,2.060280245,-13.83281323,-43.63835818,4.264557423
4.38088579,3.800804442,0.000146321,-0.002948887,,,5.059818855,3.213777211,-7.76047361,-25.62856516,2.900947653
4.38088579,3.800804442,0.000146321,-0.002948887,,,5.060260471,2.967239569,-8.758670025,-29.41112765,3.137090077
4.392097077,2.153348308,0.000358901,-0.002094089,,,5.0626371,2.852871669,-9.275563183,-31.16463073,3.265482198
4.39698719,3.917577682,0.000120336,-0.002978174,,,5.063616362,3.751381495,-6.131790377,-17.51545793,2.573032594
4.413088591,4.034350921,9.30039E-05,-0.003003575,,,5.066278623,4.464500893,-4.730764428,-7.335999254,2.485683453
4.413088591,4.034350921,9.30039E-05,-0.003003575,,,5.0697434,4.821696277,-3.28039833,-2.822166769,2.220356085
4.416815209,0.15209025,5.32006E-05,-0.000180339,,,5.071082905,3.132697201,-8.060344348,-26.80133611,3.003641919
4.417112295,0.45627075,0.000146466,-0.000527256,,,5.072064131,3.863233713,-5.875542014,-15.82677275,2.564762146
4.417112295,0.45627075,0.000146466,-0.000527256,,,5.072110183,0.559088586,-26.59567351,-67.87735199,6.92766621
4.418448607,2.464162469,0.0003491,-0.002302513,,,5.073694931,0.633621452,-25.82148709,-66.64736085,6.763221005
4.418448607,2.464162469,0.0003491,-0.002302513,,,5.07422404,4.902632155,-2.312040983,-2.018529955,1.970041336
4.421376451,0.758080828,0.000222168,-0.000852242,,,5.078268361,3.482237861,-6.846226416,-21.45142626,2.753033756
4.421376451,0.758080828,0.000222168,-0.000852242,,,5.08063973,3.673986789,-6.315237881,-18.57274968,2.658862713
4.423016823,4.146536938,6.55037E-05,-0.003025886,,,5.082098895,4.699538016,-3.982312091,-4.227476029,2.449105334
4.423112401,1.064594824,0.000281929,-0.001162087,,,5.086378424,0.148931051,-31.12587336,-74.45696417,7.969175768
4.431066912,1.37313811,0.000325768,-0.001451957,,,5.086496528,4.532968218,-4.568802484,-6.379332906,2.578841681
4.432945055,4.258722956,3.69901E-05,-0.003044674,,,5.09021114,2.583099952,-10.60719507,-35.18434249,3.646622808
4.432945055,4.258722956,3.69901E-05,-0.003044674,,,5.091689665,0.380264848,-28.46813532,-70.66401531,7.383219386
4.441760461,4.368550846,8.15437E-06,-0.003059914,,,5.095873111,4.495623345,-4.65018017,-6.848427954,2.6203803
4.445239983,1.683710687,0.000353975,-0.001720381,,,5.099703395,3.633522876,-6.410668859,-19.06954699,2.736858967
4.445239983,1.683710687,0.000353975,-0.001720381,,,5.100184719,3.932771135,-5.725048839,-14.67503051,2.646737692
4.450575867,4.478378737,-2.1559E-05,-0.00307177,,,5.100391954,0.811071638,-23.99766579,-63.55748738,6.428786778
4.450575867,4.478378737,-2.1559E-05,-0.00307177,,,5.101202388,3.51128618,-6.746836368,-20.88502719,2.804295885
4.452862274,3.368450338,0.000237877,-0.002775204,,,5.102810051,4.620003464,-4.32794073,-5.259165361,2.629885455
4.452862274,3.368450338,0.000237877,-0.002775204,,,5.103006521,4.195347218,-5.238701448,-10.91978942,2.642863291
4.454811672,4.581454017,-5.01054E-05,-0.00308103,,,5.103040877,2.760987685,-9.672557004,-32.33182819,3.468919818
4.459047478,4.684529298,-7.93715E-05,-0.003087285,,,5.103225861,1.042261392,-21.82031177,-59.75533053,5.980539553
4.459047478,4.684529298,-7.93715E-05,-0.003087285,,,5.104950628,1.739283699,-16.04831534,-48.44431739,4.825488333
4.460847648,3.245109156,0.000260207,-0.002720211,,,5.106592425,1.810707834,-15.51772847,-47.287829,4.722946058
4.462072321,4.778604568,-0.000106709,-0.003090561,,,5.109213803,0.031750377,-32.4796771,-76.19342574,8.335738337
4.462411839,3.497705934,0.000213746,-0.00282406,,,5.110553429,2.875118119,-9.120234436,-30.5169097,3.362781589
4.462411839,3.497705934,0.000213746,-0.00282406,,,5.111680394,1.33671084,-19.23189588,-54.89796752,5.473889422
4.462615826,2.837029253,0.000319267,-0.002516595,,,5.115542866,4.111158775,-5.388827942,-12.05092819,2.690969979
4.462615826,2.837029253,0.000319267,-0.002516595,,,5.117266308,4.313944266,-5.02957237,-9.225465634,2.712241678
4.464658161,1.975311378,0.000366436,-0.001950146,,,5.119895859,3.034069184,-8.413560892,-28.01105711,3.226585954
4.464658161,1.975311378,0.000366436,-0.001950146,,,5.121978867,1.562887823,-17.37638585,-51.16324614,5.127034967
4.465097164,4.872679837,-0.000134721,-0.003091156,,,5.122529594,3.963369503,-5.661705076,-14.12364933,2.722768341
4.465097164,4.872679837,-0.000134721,-0.003091156,,,5.127338536,4.59547498,-4.391302311,-5.507925338,2.771948824
4.466855281,4.936339918,-0.000154043,-0.00309004,,,5.1279295,4.763510178,-3.607479166,-3.570501392,2.718155853
4.468613399,5,-0.000173657,-0.00308754,,,5.130495819,1.158379411,-20.73179577,-57.66677753,5.814396086
4.468833021,3.121767974,0.000280835,-0.002661389,,,5.131291181,4.070954386,-5.460320399,-12.54655428,2.750924993
4.470299164,3.612657109,0.000190653,-0.002863859,,,5.132298228,1.221152626,-20.181207,-56.63096124,5.706932343
4.476818394,2.998426792,0.000299652,-0.002598772,,,5.134183247,1.976231591,-14.30012105,-44.45191614,4.541917322
4.476818394,2.998426792,0.000299652,-0.002598772,,,5.144092048,2.195152982,-12.82934931,-40.91166035,4.265096773
4.478186488,3.727608285,0.000166139,-0.002900062,,,5.144354551,3.345197895,-7.233906431,-23.12539924,3.037162893
4.486073813,3.842559461,0.000140282,-0.002932655,,,5.145548558,0.411468597,-27.99465427,-69.78361526,7.397246226
4.486073813,3.842559461,0.000140282,-0.002932655,,,5.148534698,4.385548146,-4.899863657,-8.152395983,2.865496432
4.491009691,2.28612554,0.0003651,-0.002170556,,,5.149489436,4.827366759,-3.126545646,-3.070701697,2.897026691
4.5,0,0,0,,,5.15303803,3.561577984,-6.578124296,-19.83382652,2.937844996
4.500297086,0.3041805,0.000104491,-0.000354163,,,5.153344372,0.778116541,-24.20855136,-63.72432649,6.582453638
4.500297086,0.3041805,0.000104491,-0.000354163,,,5.156475121,2.849918902,-9.188442583,-30.60625849,3.507300418
4.502175214,3.959332701,0.000112897,-0.002959707,,,5.158577153,2.788706401,-9.476040234,-31.53728035,3.577979996
4.502175214,3.959332701,0.000112897,-0.002959707,,,5.160076072,2.455075464,-11.23422329,-36.71543931,3.969054804
4.502784136,0.60562792,0.000190438,-0.000686555,,,5.161039746,3.791086276,-6.011445533,-16.41215078,2.885508535
4.502784136,0.60562792,0.000190438,-0.000686555,,,5.162093258,4.702753298,-3.936670682,-4.254988955,2.980445188
4.505051319,2.697653759,0.000338129,-0.002428507,,,5.172753839,2.985588734,-8.567273687,-28.41294927,3.414010597
4.508825398,0.907800655,0.000259602,-0.000999972,,,5.172968172,2.303743777,-12.11327702,-38.99868649,4.188630743
4.508825398,0.907800655,0.000259602,-0.000999972,,,5.173464562,4.41176514,-4.852141485,-7.728638905,2.993723247
4.510561348,1.214314651,0.000312294,-0.001297422,,,5.174995169,2.63989026,-10.20495001,-33.73214482,3.785098197
4.510561348,1.214314651,0.000312294,-0.001297422,,,5.176296045,1.591874734,-17.06584493,-50.30608725,5.184265471
4.512103446,4.071518718,8.5229E-05,-0.002983703,,,5.176375781,2.359156243,-11.77446463,-38.10473032,4.126344677
4.522031678,4.183704736,5.64645E-05,-0.003004206,,,5.176876923,4.00676105,-5.578408943,-13.2309443,2.92487371
4.52473442,1.524887229,0.000349643,-0.001575394,,,5.181359869,3.150684842,-7.894635161,-25.83696804,3.290411735
4.52473442,1.524887229,0.000349643,-0.001575394,,,5.184372504,1.943229968,-14.45957871,-44.61991548,4.692333926
4.53195991,4.295890753,2.66639E-05,-0.003021211,,,5.186621743,4.678224813,-4.075257623,-4.512060613,3.158141106
4.53195991,4.295890753,2.66639E-05,-0.003021211,,,5.18669409,4.536119425,-4.565126516,-6.127926314,3.109327423
4.535126391,1.826549702,0.000369661,-0.001823714,,,5.194576179,3.278512674,-7.423017827,-23.81613283,3.230226483
4.535126391,1.826549702,0.000369661,-0.001823714,,,5.194592755,4.504660777,-4.65286327,-6.495238552,3.144604354
4.540775315,4.405718644,-3.45632E-06,-0.003034762,,,5.197154316,4.584482595,-4.432014444,-5.534688042,3.197061889
4.540775315,4.405718644,-3.45632E-06,-0.003034762,,,5.19735553,0.185413455,-30.39663939,-73.10578128,8.06943558
4.545011121,4.508793924,-3.24538E-05,-0.003045745,,,5.200571098,4.228664969,-5.197545459,-10.04453103,3.063394735
4.547486812,2.558278266,0.000354504,-0.002336171,,,5.202465285,3.237044742,-7.561653026,-24.39114916,3.283019974
4.549246927,4.611869205,-6.22067E-05,-0.003053816,,,5.204742748,4.767783013,-3.610274015,-3.658561601,3.394375212
4.553482733,4.714944486,-9.27951E-05,-0.003058945,,,5.206189103,3.378595749,-7.086500101,-22.23759961,3.199405702
4.553482733,4.714944486,-9.27951E-05,-0.003058945,,,5.206659683,3.725346066,-6.149013651,-17.10830858,3.056885714
4.556507576,4.809019755,-0.000121511,-0.003061274,,,5.211437446,2.964361367,-8.621514535,-28.47991959,3.537957372
4.556507576,4.809019755,-0.000121511,-0.003061274,,,5.214250456,1.001531346,-21.98349303,-59.62313019,6.239599389
4.558265694,4.872679837,-0.000141441,-0.00306146,,,5.21527724,3.839446347,-5.90087441,-15.40795086,3.070536731
4.559712538,3.424509776,0.000233628,-0.002769907,,,5.221777928,2.663240006,-10.03134132,-33.04610134,3.87524893
4.559712538,3.424509776,0.000233628,-0.002769907,,,5.224776025,1.368109633,-18.78461527,-53.56823791,5.622050673
4.559712538,3.424509776,0.000233628,-0.002769907,,,5.225723348,3.684882153,-6.238791571,-17.58437395,3.131597704
4.559712538,3.424509776,0.000233628,-0.002769907,,,5.229123131,3.407644068,-6.983477487,-21.65630919,3.252688895
4.559712538,3.424509776,0.000233628,-0.002769907,,,5.233860754,4.738665006,-3.816095467,-3.905996608,3.618022703
4.559712538,3.424509776,0.000233628,-0.002769907,,,5.234204473,4.436919952,-4.830596892,-7.202300002,3.330428747
4.560023811,4.936339918,-0.00016183,-0.003060369,,,5.234739161,0.56248615,-26.18823282,-66.67599503,7.18336883
4.561781928,5,-0.000182692,-0.003057911,,,5.236074123,0.625271293,-25.54584136,-65.63554417,7.043297173
4.563570775,2.108088611,0.000376367,-0.002032246,,,5.237622115,3.870044715,-5.838737192,-14.84127513,3.151864061
4.563570775,2.108088611,0.000376367,-0.002032246,,,5.241745456,4.154256247,-5.336483738,-10.85651353,3.221778528
4.567599863,3.539460952,0.000210757,-0.00281115,,,5.242984921,4.648454757,-4.24506228,-4.752266451,3.567120191
4.567599863,3.539460952,0.000210757,-0.00281115,,,5.245467973,2.15069336,-12.98291919,-40.88747186,4.547776222
4.567697911,3.301168595,0.000257446,-0.002717356,,,5.250461414,3.601282764,-6.435849407,-18.65427953,3.23775627
4.567697911,3.301168595,0.000257446,-0.002717356,,,5.251214423,0.216617205,-29.89097641,-72.21766559,8.077587267
4.575487187,3.654412128,0.00018636,-0.002848821,,,5.251930874,3.48145444,-6.755498971,-20.4116518,3.28750389
4.575487187,3.654412128,0.00018636,-0.002848821,,,5.252259307,3.136434447,-7.891664568,-25.58227702,3.502243744
4.575683285,3.177827413,0.000279543,-0.002661,,,5.256291844,4.27523692,-5.143018604,-9.174212796,3.3463166
4.575683285,3.177827413,0.000279543,-0.002661,,,5.257325517,0.445933571,-27.3516885,-68.42384245,7.495554548
4.583374512,3.769363304,0.000160516,-0.00288291,,,5.257493771,4.114051858,-5.408552209,-11.32236707,3.276531219
4.583374512,3.769363304,0.000160516,-0.00288291,,,5.263587408,0.740438971,-24.34472153,-63.5414294,6.83662832
4.583481876,0.15209025,5.58162E-05,-0.000178333,,,5.265367471,2.474286897,-10.99911506,-35.66945625,4.197806565
4.583481876,0.15209025,5.58162E-05,-0.000178333,,,5.265630861,1.738811739,-15.81875137,-47.28421514,5.142175089
4.583668658,3.054486231,0.000299806,-0.002600874,,,5.265852538,3.934613613,-5.718538852,-13.76330564,3.264809237
4.583668658,3.054486231,0.000299806,-0.002600874,,,5.267013882,1.798978145,-15.37454284,-46.31109539,5.061161312
4.585968927,0.45353767,0.000152769,-0.000518117,,,5.267202873,0.968576249,-22.18493708,-59.76960121,6.387336985
4.589922305,2.418902772,0.000368195,-0.002239696,,,5.270834456,0.037691187,-31.93717279,-74.9825032,8.622291395
4.589922305,2.418902772,0.000368195,-0.002239696,,,5.2744415,4.040078802,-5.536644011,-12.24488885,3.323696733
4.590233083,0.755347748,0.000232059,-0.000839124,,,5.279093203,1.397096543,-18.46072138,-52.68969495,5.672746968
4.591261837,3.88431448,0.000133309,-0.002913405,,,5.281221707,4.301453914,-5.115072715,-8.71772381,3.48919462
4.591261837,3.88431448,0.000133309,-0.002913405,,,5.286162077,2.843277595,-9.087939894,-29.81488786,3.853975308
4.591261837,3.88431448,0.000133309,-0.002913405,,,5.286994896,1.623258274,-16.65966379,-48.97683657,5.348251866
4.591261837,3.88431448,0.000133309,-0.002913405,,,5.287932791,2.791713285,-9.32688488,-30.59402896,3.909550417
4.591261837,3.88431448,0.000133309,-0.002913405,,,5.290942913,3.11520708,-7.942039426,-25.63672914,3.629245966
4.591261837,3.88431448,0.000133309,-0.002913405,,,5.292729029,4.684127167,-4.183711859,-4.302614961,4.036490903
4.591654031,2.931145049,0.000318132,-0.002537008,,,5.293482211,1.905479994,-14.57631407,-44.41263036,4.971349731
4.591654031,2.931145049,0.000318132,-0.002537008,,,5.293860273,1.146181189,-20.551799,-56.66142007,6.110120486
4.591654031,2.931145049,0.000318132,-0.002537008,,,5.295657231,2.117691738,-13.13377648,-41.03429572,4.701418125
4.591654031,2.931145049,0.000318132,-0.002537008,,,5.29599993,1.220699894,-19.90571442,-55.42888566,5.987083322
4.591654031,2.931145049,0.000318132,-0.002537008,,,5.298689873,3.767128336,-6.046317574,-15.94357828,3.378466446
4.591654031,2.931145049,0.000318132,-0.002537008,,,5.298820245,3.299312374,-7.285783257,-22.81074442,3.527202762
4.596274345,1.057520483,0.000294166,-0.001140319,,,5.30117102,4.590268657,-4.522246864,-5.212238026,3.927980024
4.596274345,1.057520483,0.000294166,-0.001140319,,,5.301348513,2.93449827,-8.66722288,-28.31037023,3.809547658
4.601190069,3.996500498,0.000105559,-0.002938995,,,5.30818548,3.250085382,-7.444306398,-23.48353933,3.585355618
4.601190069,3.996500498,0.000105559,-0.002938995,,,5.309654377,2.692626283,-9.787760495,-31.96159663,4.067335239
4.604228856,1.36606377,0.000340297,-0.001426202,,,5.31215023,2.497636643,-10.81489559,-34.96160355,4.285321904
4.604228856,1.36606377,0.000340297,-0.001426202,,,5.317509263,4.351640656,-5.061342607,-7.910951628,3.727394331
4.611118301,4.108686515,7.66284E-05,-0.002961114,,,5.321242693,4.543603863,-4.680311211,-5.64304996,3.997094039
4.611118301,4.108686515,7.66284E-05,-0.002961114,,,5.321320539,3.719093225,-6.147391619,-16.48809301,3.46235227
4.614620827,1.667726243,0.000369109,-0.001683765,,,5.323640138,2.283555659,-12.05053177,-38.21515163,4.561619966
4.621046532,4.220872533,4.65862E-05,-0.002979764,,,5.325215695,3.803451962,-5.973703212,-15.25619256,3.478200334
4.621046532,4.220872533,4.65862E-05,-0.002979764,,,5.326045456,3.333795921,-7.160103924,-22.10712713,3.591485583
4.630974764,4.33305855,1.54917E-05,-0.002994949,,,5.326603792,3.603148244,-6.412060426,-18.13184191,3.495116577
4.630974764,4.33305855,1.54917E-05,-0.002994949,,,5.327685345,2.349336345,-11.64924364,-37.15535605,4.49339191
4.630974764,4.33305855,1.54917E-05,-0.002994949,,,5.328504581,3.448146855,-6.81781124,-20.39314944,3.546977824
4.630974764,4.33305855,1.54917E-05,-0.002994949,,,5.329141357,4.512145215,-4.765127908,-5.956875064,4.000672692
4.630974764,4.33305855,1.54917E-05,-0.002994949,,,5.334137756,4.190292912,-5.329946245,-9.888251356,3.671867773
4.630974764,4.33305855,1.54917E-05,-0.002994949,,,5.33477088,0.074733467,-31.30270854,-73.92321822,8.62695573
4.634039005,1.959326934,0.000382784,-0.00191034,,,5.337147595,3.904032104,-5.788012292,-13.76132476,3.54198739
4.634089524,2.791769556,0.000339243,-0.002452473,,,5.338221177,4.442706014,-4.921396672,-6.715275243,3.957753465
4.634089524,2.791769556,0.000339243,-0.002452473,,,5.339013582,0.295298045,-28.77157231,-70.2934884,8.01118746
4.63521057,4.436133831,-1.38664E-05,-0.003007522,,,5.348257665,4.040454364,-5.566849041,-11.81000386,3.642153696
4.63521057,4.436133831,-1.38664E-05,-0.003007522,,,5.351609028,0.887679378,-22.76805269,-60.45480801,6.675914652
4.639446376,4.539209112,-4.39895E-05,-0.003017241,,,5.352832736,4.142565884,-5.415353632,-10.41122109,3.726537032
4.639446376,4.539209112,-4.39895E-05,-0.003017241,,,5.354107172,3.224886165,-7.5019201,-23.53602596,3.738845548
4.643682182,4.642284393,-7.49283E-05,-0.003024111,,,5.356720612,1.107059867,-20.78421136,-56.81571635,6.28152871
4.643682182,4.642284393,-7.49283E-05,-0.003024111,,,5.36048039,1.255110543,-19.50803795,-54.36816612,6.040147678
4.647917988,4.745359674,-0.000106813,-0.00302813,,,5.362812524,3.051113928,-8.13486567,-26.09085365,3.88415606
4.647917988,4.745359674,-0.000106813,-0.00302813,,,5.363551269,3.600323118,-6.412556268,-17.92140187,3.623174109
4.647917988,4.745359674,-0.000106813,-0.00302813,,,5.363732244,4.221415364,-5.310092794,-9.317608483,3.846190218
4.647917988,4.745359674,-0.000106813,-0.00302813,,,5.365181253,3.715739491,-6.154183847,-16.24475557,3.622162736
4.647917988,4.745359674,-0.000106813,-0.00302813,,,5.365452057,3.445321729,-6.812151485,-20.17665357,3.667929273
4.647917988,4.745359674,-0.000106813,-0.00302813,,,5.366465224,1.472679338,-17.71949401,-50.78842553,5.715877038
4.648232685,3.371488611,0.000249176,-0.002724247,,,5.367994424,4.608861771,-4.611745386,-4.774235503,4.486056666
4.648232685,3.371488611,0.000249176,-0.002724247,,,5.36990617,3.330442187,-7.148527047,-21.84584667,3.729695507
4.649676106,4.809019755,-0.000127061,-0.003029451,,,5.37210946,3.794165922,-5.99733699,-15.08039563,3.655635033
4.649676106,4.809019755,-0.000127061,-0.003029451,,,5.376650059,3.896209711,-5.813868311,-13.61651144,3.699405807
4.651434223,4.872679837,-0.000147836,-0.003029642,,,5.379514101,2.040352731,-13.54059237,-41.60841899,4.983319888
4.651434223,4.872679837,-0.000147836,-0.003029642,,,5.379519309,2.564601795,-10.37677749,-33.41348678,4.380417836
4.653192341,4.936339918,-0.000169244,-0.003028625,,,5.383220303,2.244379106,-12.2210548,-38.36938852,4.74704716
4.653192341,4.936339918,-0.000169244,-0.003028625,,,5.383221621,2.377055061,-11.42211639,-36.2964403,4.59474474
4.654950458,5,-0.00019136,-0.00302627,,,5.387328993,4.307356267,-5.211081693,-8.096803643,4.066649307
4.654950458,5,-0.00019136,-0.00302627,,,5.387760128,4.032631971,-5.601326867,-11.6699502,3.812527908
4.656218058,3.248147429,0.000272824,-0.002670656,,,5.389444353,3.754488562,-6.077115005,-15.52585349,3.715604967
4.659520195,3.468767182,0.000230256,-0.002758722,,,5.397269758,0.03704228,-31.56074862,-74.07747164,8.851589051
4.659520195,3.468767182,0.000230256,-0.002758722,,,5.399726502,4.133279844,-5.466529273,-10.25081398,3.944198503
4.662483389,2.240865843,0.000383237,-0.002106997,,,5.400113999,3.250726104,-7.388549818,-22.81300164,3.86374321
4.662483389,2.240865843,0.000383237,-0.002106997,,,5.400901493,3.297120423,-7.238152967,-22.11554046,3.842495347
4.664203432,3.124806247,0.000294648,-0.002613305,,,5.40431773,4.208304117,-5.368901574,-9.24731293,4.041296484
4.666666667,0,0,0,,,5.41412045,4.425151931,-5.07907175,-6.537594822,4.413134119
4.666666667,0,0,0,,,5.420952975,4.551572785,-4.878299316,-5.107412191,4.748800238
4.666666667,0,0,0,,,5.421040061,1.142869878,-20.36403607,-55.72062611,6.325522528
4.667407519,3.583718358,0.000206078,-0.002797735,,,5.421517476,4.296311589,-5.273565481,-8.035652724,4.244813807
4.669153718,0.30144742,0.000108575,-0.000346869,,,5.421617008,4.167895625,-5.440939793,-9.660924217,4.086003666
4.671640768,0.60289484,0.000198555,-0.000675151,,,5.422660181,1.216401848,-19.73426307,-54.50550727,6.20745814
4.671640768,0.60289484,0.000198555,-0.000675151,,,5.423734899,0.213971679,-29.44110332,-70.99159005,8.371284285
4.672188805,3.001465065,0.000314537,-0.002552228,,,5.423770427,3.588030986,-6.43508277,-17.67258428,3.835128077
4.672188805,3.001465065,0.000314537,-0.002552228,,,5.425239886,3.468202662,-6.73243676,-19.40784839,3.858519939
4.675294844,3.698669534,0.000180354,-0.002833188,,,5.426446904,0.443340169,-26.96195508,-67.19852559,7.765608146
4.676525017,2.652394062,0.000357869,-0.002363747,,,5.428366891,3.113082768,-7.852305818,-24.66392004,4.03067726
4.676525017,2.652394062,0.000357869,-0.002363747,,,5.430329558,4.514227913,-4.969868798,-5.454378262,4.720222935
4.67768203,0.905067575,0.000270843,-0.000984352,,,5.432708795,0.737845568,-24.01422452,-62.28884843,7.101698036
4.683182169,3.81362071,0.000153166,-0.002865071,,,5.43606489,2.932415812,-8.561332405,-27.33667648,4.184808381
4.683182169,3.81362071,0.000153166,-0.002865071,,,5.43972335,0.965930723,-21.88783485,-58.47421619,6.665120215
4.683723292,1.207240311,0.000325595,-0.00127303,,,5.441486432,3.668384197,-6.258044616,-16.38601481,3.899738172
4.683723292,1.207240311,0.000325595,-0.00127303,,,5.442538316,2.346812307,-11.53398618,-36.29892432,4.771855547
4.683723292,1.207240311,0.000325595,-0.00127303,,,5.444370754,2.690543825,-9.663547291,-30.96681303,4.421300648
4.683723292,1.207240311,0.000325595,-0.00127303,,,5.444886214,3.391146111,-6.93825518,-20.39400452,3.944767134
4.683723292,1.207240311,0.000325595,-0.00127303,,,5.446582204,2.279917039,-11.93043794,-37.30994914,4.855749174
4.683723292,1.207240311,0.000325595,-0.00127303,,,5.448308934,4.414107253,-5.162024646,-6.466098535,4.612672077
4.691558246,3.924523702,0.000125646,-0.002892191,,,5.449495584,1.390428199,-18.25635439,-51.45406616,5.985844659
4.691558246,3.924523702,0.000125646,-0.002892191,,,5.449574208,2.495512331,-10.67762184,-33.93296676,4.629924887
4.694115264,1.508902784,0.000363662,-0.00153961,,,5.451146193,3.897921224,-5.843531923,-13.08444336,4.007952759
4.701486478,4.03670972,9.65874E-05,-0.002915731,,,5.453502546,0.559131509,-25.71562924,-65.07642973,7.527318304
4.704507235,1.810565257,0.000385301,-0.001784505,,,5.454039918,1.616721312,-16.47740943,-47.76014279,5.677763518
4.704507235,1.810565257,0.000385301,-0.001784505,,,5.454837509,0.621916653,-25.08975729,-64.02858013,7.385747167
4.71141471,4.148895738,6.63386E-05,-0.002935825,,,5.459735155,4.003386413,-5.694619237,-11.58413816,4.115358051
4.71896051,2.513018569,0.000373806,-0.002270941,,,5.460421591,2.840583875,-8.94121369,-28.54356493,4.328630529
4.71896051,2.513018569,0.000373806,-0.002270941,,,5.460527234,1.898943033,-14.40929762,-43.19660354,5.331608027
4.720587511,2.903674047,0.000332248,-0.002490344,,,5.46192523,3.701025716,-6.194407426,-15.76984055,3.980255974
4.720587511,2.903674047,0.000332248,-0.002490344,,,5.462192305,2.789019566,-9.174981899,-29.31665185,4.378212901
4.721342942,4.261081755,3.49731E-05,-0.00295248,,,5.466059612,2.111023393,-12.97135559,-39.79921702,5.09255616
4.721342942,4.261081755,3.49731E-05,-0.00295248,,,5.467122213,3.134849867,-7.749150021,-24.03724888,4.132296177
4.732951619,2.092104166,0.000392876,-0.001989591,,,5.46830562,3.824364096,-5.971314293,-13.98253112,4.042977055
4.735481715,4.378672338,9.02441E-07,-0.002964905,,,5.470915045,4.501116666,-5.098556323,-5.357160373,4.977969345
4.735481715,4.378672338,9.02441E-07,-0.002964905,,,5.470996116,3.363076457,-7.010114125,-20.60867029,4.03850471
4.735938491,4.809019755,-0.000131882,-0.002998033,,,5.476382829,0.182221302,-29.64498527,-71.11097753,8.546791322
4.735938491,4.809019755,-0.000131882,-0.002998033,,,5.477876704,4.299833537,-5.359054491,-7.637253439,4.574011583
4.736752832,3.318467445,0.000264799,-0.00267713,,,5.480873031,4.236956035,-5.433607682,-8.393500196,4.486991164
4.736752832,3.318467445,0.000264799,-0.00267713,,,5.481708409,1.730355991,-15.59224738,-45.70901082,5.584328364
4.737696609,4.872679837,-0.000153307,-0.002998235,,,5.482908221,3.790940602,-6.034365206,-14.34310256,4.087418514
4.739454726,4.936339918,-0.000175574,-0.002997302,,,5.48309143,1.790522397,-15.15219523,-44.73626232,5.511701893
4.73971752,4.481747619,-2.97345E-05,-0.002975681,,,5.488177276,4.068371239,-5.636881633,-10.51584844,4.307173245
4.741212844,5,-0.000198894,-0.002995082,,,5.493904895,0.996096431,-21.52041662,-57.53839604,6.694375671
4.743953326,4.5848229,-6.11555E-05,-0.002983663,,,5.49544563,4.202916648,-5.493415068,-8.7226951,4.514134131
4.744738206,3.195126263,0.00028821,-0.002622583,,,5.498588618,4.390898895,-5.301800684,-6.415396756,4.885295138
4.748040342,3.415746017,0.000246021,-0.00271217,,,5.499541523,2.470036379,-10.76694593,-33.92217077,4.781954985
4.748189132,4.687898181,-9.34548E-05,-0.002988874,,,5.50163953,3.534922765,-6.555557057,-17.85615102,4.110922439
4.748189132,4.687898181,-9.34548E-05,-0.002988874,,,5.50187472,1.357820691,-18.44307666,-51.55166307,6.125240667
4.752338508,0.14935717,5.74315E-05,-0.000173027,,,5.506617444,4.097530949,-5.62320939,-10.00019993,4.429375482
4.752338508,0.14935717,5.74315E-05,-0.000173027,,,5.51726332,3.242320944,-7.359565083,-22.03436504,4.23061952
4.752723579,3.071785081,0.000309693,-0.002564322,,,5.517926691,3.281402683,-7.23698371,-21.44840031,4.217077705
4.752723579,3.071785081,0.000309693,-0.002564322,,,5.519434536,2.140959908,-12.71800196,-38.88678785,5.18080225
4.754825559,0.45080459,0.0001589,-0.000508575,,,5.519642414,3.741142108,-6.135684521,-14.76481847,4.212420549
4.759089715,0.752614668,0.000241719,-0.000825232,,,5.523120937,2.959543336,-8.38265646,-26.232356,4.411167652
4.759327851,3.513024588,0.000225965,-0.0027446,,,5.52879268,4.447647336,-5.323091445,-5.563266603,5.232078532
4.759327851,3.513024588,0.000225965,-0.0027446,,,5.533461419,2.658421975,-9.739920297,-30.73807884,4.687083642
4.761396003,2.373643075,0.000386856,-0.002174164,,,5.53683242,0.405468431,-27.07558368,-66.95696208,8.025063114
4.761396003,2.373643075,0.000386856,-0.002174164,,,5.54221236,3.599687183,-6.4143458,-16.60179074,4.259626147
4.761396003,2.373643075,0.000386856,-0.002174164,,,5.543711353,3.477450486,-6.691361362,-18.35827921,4.259002307
4.761396003,2.373643075,0.000386856,-0.002174164,,,5.544601574,3.153216558,-7.642219272,-23.14191944,4.355989329
4.761396003,2.373643075,0.000386856,-0.002174164,,,5.544628234,0.772116375,-23.45974938,-60.81925145,7.195621139
4.761396003,2.373643075,0.000386856,-0.002174164,,,5.546232195,4.140165461,-5.632710592,-9.154498147,4.685987461
4.763023004,2.764298553,0.000353373,-0.002405568,,,5.547713239,3.336536727,-7.064005008,-20.39218006,4.295063417
4.765130977,1.054787403,0.000306508,-0.001121968,,,5.549584869,3.932956338,-5.863899118,-11.87378033,4.456610879
4.765130977,1.054787403,0.000306508,-0.001121968,,,5.556774718,4.332712796,-5.49112629,-6.68694226,5.112179496
4.767215176,3.627975764,0.000200448,-0.002781321,,,5.558663827,0.03120375,-31.11713195,-72.94987278,9.145240379
4.7736097,1.350079325,0.000352983,-0.001391482,,,5.561876259,2.981310435,-8.268422299,-25.58371314,4.507742033
4.7736097,1.350079325,0.000352983,-0.001391482,,,5.562651158,3.632328702,-6.352191364,-15.96967748,4.341259407
4.775102501,3.74292694,0.000173365,-0.002814495,,,5.562775973,1.576750642,-16.63959087,-47.49144049,5.936668482
4.775102501,3.74292694,0.000173365,-0.002814495,,,5.569821255,3.449380832,-6.759040054,-18.55500202,4.349931156
4.783478578,3.853829932,0.000145855,-0.002842871,,,5.570852433,1.928105876,-14.07743901,-41.80663064,5.533119275
4.784001671,1.651741798,0.00038377,-0.001645373,,,5.582929883,4.279486303,-5.588985578,-7.128260294,5.145461778
4.791854656,3.964732925,0.000117039,-0.002867924,,,5.583428735,2.632946023,-9.822572842,-30.70888703,4.84254823
4.791854656,3.964732925,0.000117039,-0.002867924,,,5.583608173,1.144735673,-20.08304352,-54.34416558,6.583837738
4.801122285,2.973994063,0.000328498,-0.002503909,,,5.584972933,1.20667768,-19.56098612,-53.31640482,6.489726064
4.801782888,4.076918942,8.66572E-05,-0.002889364,,,5.585968491,0.146366994,-29.71854472,-70.84566533,8.825064933
4.803419849,1.943342489,0.000398695,-0.00186828,,,5.58948035,0.373718054,-27.26709929,-67.05923975,8.183453854
4.805458497,2.62492306,0.000371866,-0.002316732,,,5.589643634,2.843222944,-8.825440922,-27.44286116,4.684994844
4.81171112,4.18910496,5.50836E-05,-0.002907389,,,5.591745666,2.782010442,-9.098231449,-28.35715367,4.738482119
4.81171112,4.18910496,5.50836E-05,-0.002907389,,,5.595638883,3.869683024,-5.985423327,-12.37081613,4.600785804
4.823958994,4.872679837,-0.000158345,-0.002964831,,,5.597502483,4.245446917,-5.642285212,-7.430030271,5.154054641
4.823958994,4.872679837,-0.000158345,-0.002964831,,,5.597511517,3.688033887,-6.26077097,-14.89112881,4.491750074
4.825272979,3.26544628,0.000280437,-0.002628601,,,5.598809779,0.802282083,-23.07238937,-59.8684507,7.212780393
4.825272979,3.26544628,0.000280437,-0.002628601,,,5.603945588,2.348864105,-11.35304669,-34.9195904,5.16407397
4.825717112,4.936339918,-0.000181241,-0.002963968,,,5.604058076,4.37238194,-5.590522925,-5.853272481,5.510715311
4.825849893,4.306695543,2.07513E-05,-0.002921215,,,5.60440047,3.977267908,-5.869581269,-10.83815956,4.749391667
4.827475229,5,-0.000205581,-0.002961998,,,5.605757649,1.029177244,-21.03603219,-56.0565326,6.807382211
4.831864233,2.224881398,0.000399742,-0.002061222,,,5.607352087,2.292512736,-11.68375952,-35.76666199,5.228665639
4.831864233,2.224881398,0.000399742,-0.002061222,,,5.610241484,3.836259531,-6.041185526,-12.71044045,4.634491061
4.833258353,3.142105098,0.000303544,-0.002573185,,,5.612159312,1.319727755,-18.59312822,-51.23332264,6.36852419
4.833258353,3.142105098,0.000303544,-0.002573185,,,5.613900301,2.445102104,-10.79298414,-33.34137418,5.095465089
4.833333333,0,0,0,,,5.61515511,1.544143134,-16.82271171,-47.56359984,6.075694583
4.836209635,4.751558262,-0.000118009,-0.002957464,,,5.615562419,3.544974735,-6.541769141,-16.78578904,4.514809897
4.836560489,3.362724851,0.000261849,-0.002664139,,,5.61590494,0.550749733,-25.41887659,-63.90292978,7.778915477
4.83801035,0.29871434,0.000112497,-0.000339341,,,5.617489688,0.625282598,-24.6932029,-62.65065509,7.610551542
4.83801035,0.29871434,0.000112497,-0.000339341,,,5.617853941,3.034518442,-8.02904215,-24.30746201,4.638698153
4.839988665,4.424286126,-1.47972E-05,-0.002931269,,,5.61808109,3.776177222,-6.130895336,-13.47954045,4.621730526
4.839988665,4.424286126,-1.47972E-05,-0.002931269,,,5.622840638,4.006427618,-5.86482272,-10.29608941,4.871910954
4.8404974,0.60016176,0.000206438,-0.000663155,,,5.624112882,3.40325683,-6.871467202,-18.77343288,4.536263185
4.8404974,0.60016176,0.000206438,-0.000663155,,,5.624227358,1.958042391,-13.81336083,-40.86770955,5.615800649
4.844224471,4.527361407,-4.66638E-05,-0.002940257,,,5.625130208,4.17304472,-5.743264671,-8.110906342,5.156513932
4.846538662,0.902334495,0.000281779,-0.000967741,,,5.629879116,2.180775523,-12.34773196,-37.31390456,5.3956009
4.846538662,0.902334495,0.000281779,-0.000967741,,,5.63565046,2.869062883,-8.680065714,-26.65441782,4.795304017
4.847847998,3.460003423,0.000241923,-0.002697071,,,5.636081909,4.069735386,-5.831976961,-9.349560177,5.0286933
4.84789399,2.485547566,0.000387522,-0.002223943,,,5.639825519,3.583723806,-6.468821825,-16.02075632,4.611597503
4.84789399,2.485547566,0.000387522,-0.002223943,,,5.64206902,1.718264682,-15.48747927,-44.52618566,5.918801588
4.848460277,4.630436688,-7.93116E-05,-0.002946538,,,5.643710818,1.789688818,-14.96873011,-43.36985523,5.841428881
4.848460277,4.630436688,-7.93116E-05,-0.002946538,,,5.646557742,3.511652971,-6.618291705,-17.0015143,4.618952178
4.849520992,2.876203044,0.00034624,-0.002441537,,,5.651062361,2.751767688,-9.190699322,-28.30461405,4.925249411
4.849520992,2.876203044,0.00034624,-0.002441537,,,5.658007265,4.314024445,-5.763596399,-6.091802158,5.676985298
4.852405609,1.200778266,0.000338195,-0.001248339,,,5.663068306,3.66806797,-6.32622112,-14.61503711,4.732796081
4.852405609,1.200778266,0.000338195,-0.001248339,,,5.667007141,3.139872067,-7.632497229,-22.29891318,4.735425501
4.859135508,3.557281994,0.000220699,-0.002727392,,,5.670118806,3.323192236,-7.077217063,-19.54936572,4.695986723
4.859135508,3.557281994,0.000220699,-0.002727392,,,5.673401813,0.294409118,-27.8634465,-67.68942995,8.517311794
4.863496108,1.492918339,0.000377128,-0.001502281,,,5.675306543,4.273615953,-5.819063461,-6.429649524,5.667866568
4.863496108,1.492918339,0.000377128,-0.001502281,,,5.675598446,3.22505946,-7.358303077,-20.95316813,4.733375142
4.867022833,3.67223317,0.00019381,-0.002761755,,,5.676261817,3.264141199,-7.242102054,-20.3675463,4.726006422
4.867022833,3.67223317,0.00019381,-0.002761755,,,5.678403818,0.513058546,-25.63905342,-64.00696551,7.953220596
4.873888079,1.794580812,0.000400421,-0.001743257,,,5.678751745,2.571044135,-10.05566265,-30.82710023,5.148231268
4.873888079,1.794580812,0.000400421,-0.001743257,,,5.681259796,3.571816901,-6.505104516,-15.82892269,4.758513578
4.875398911,3.783136162,0.000166392,-0.002791286,,,5.681809136,0.661092608,-24.21172544,-61.51048977,7.619127369
4.881657059,3.044314079,0.000323447,-0.002514226,,,5.684361699,2.844006466,-8.753628964,-26.60473422,4.949838656
4.883774988,3.894039154,0.000137576,-0.002817515,,,5.686741997,2.967697739,-8.244710693,-24.7100437,4.878329263
4.891956485,2.736827551,0.000367312,-0.002356666,,,5.686857415,0.879343434,-22.20806031,-57.83561161,7.189510024
4.892151066,4.004942147,0.000107449,-0.002840448,,,5.687624339,3.529728846,-6.589560184,-16.37843285,4.768392648
4.892151066,4.004942147,0.000107449,-0.002840448,,,5.688630256,3.906818209,-6.04070244,-11.06787263,5.042596282
4.902079298,4.117128164,7.57355E-05,-0.002859737,,,5.689158044,4.173601301,-5.878130051,-7.551460863,5.499300176
4.902079298,4.117128164,7.57355E-05,-0.002859737,,,5.689675641,3.782083913,-6.178562242,-12.77646115,4.916697407
4.902332463,2.076119721,0.00040889,-0.001944405,,,5.694686993,3.435768136,-6.793923766,-17.67908791,4.775734875
4.902332463,2.076119721,0.00040889,-0.001944405,,,5.697671567,2.787923773,-8.99082638,-27.3381542,5.026520345
4.911979497,4.936339918,-0.000185947,-0.002928832,,,5.697971795,3.658037808,-6.361813041,-14.44745874,4.86009687
4.911979497,4.936339918,-0.000185947,-0.002928832,,,5.699734006,1.46376973,-17.33665686,-48.11283173,6.328742259
4.913737615,5,-0.000210727,-0.002927313,,,5.703324385,4.039967702,-5.963422417,-9.152006889,5.306330994
4.913793126,3.212425114,0.000296031,-0.00257871,,,5.704248812,1.679555987,-15.70089375,-44.58792897,6.084819471
4.913793126,3.212425114,0.000296031,-0.00257871,,,5.705965149,3.867140849,-6.09952962,-11.45395402,5.070630475
4.913793126,3.212425114,0.000296031,-0.00257871,,,5.707072719,1.82522675,-14.64721535,-42.23295528,5.933402444
4.913793126,3.212425114,0.000296031,-0.00257871,,,5.70960697,4.267283815,-5.913873051,-6.19664507,5.847840017
4.913793126,3.212425114,0.000296031,-0.00257871,,,5.710520762,3.94143399,-6.040168329,-10.4015121,5.185608308
4.91621807,4.234718747,4.11985E-05,-0.002874849,,,5.710892249,2.039365825,-13.1784009,-38.80685062,5.723841658
4.91716602,2.358609548,0.000401914,-0.002128839,,,5.718052106,4.168267222,-5.945325143,-7.355591109,5.640490566
4.91716602,2.358609548,0.000401914,-0.002128839,,,5.724579131,3.772053751,-6.222152939,-12.59951226,5.04931911
4.919005175,0.14935717,5.99281E-05,-0.000170767,,,5.727775468,2.946590665,-8.303961791,-24.65739611,5.009065605
4.923682191,0.44807151,0.000164807,-0.000498624,,,5.729280755,3.450994928,-6.764521642,-17.14248089,4.89625235
4.923682191,0.44807151,0.000164807,-0.000498624,,,5.732218447,4.034633623,-6.017643035,-8.956773578,5.435889656
4.924230138,4.815218344,-0.000143557,-0.002922954,,,5.742571803,0.549589003,-25.13266409,-62.84934208,7.949981971
4.925080636,3.309703685,0.00027768,-0.002614676,,,5.744392374,0.6230902,-24.43159649,-61.60473125,7.784458215
4.925080636,3.309703685,0.00027768,-0.002614676,,,5.744821189,3.935101853,-6.094126439,-10.16950148,5.330311691
4.927946347,0.749881587,0.000251067,-0.000810543,,,5.747399426,3.855233945,-6.160069456,-11.23479064,5.233258062
4.927946347,0.749881587,0.000251067,-0.000810543,,,5.750323078,3.103975687,-7.720850019,-22.08088277,5.002011208
4.930055765,2.946523061,0.000342309,-0.00245333,,,5.753987663,2.640247027,-9.643574901,-29.07938858,5.290869027
4.930356843,4.352309331,5.39813E-06,-0.002886222,,,5.754061667,0.146366994,-29.19559273,-69.48110265,9.070734502
4.933813294,1.048325358,0.000317734,-0.001098929,,,5.75419698,3.332202278,-7.047651104,-18.6521317,4.96972432
4.934391978,2.597452057,0.000385603,-0.002267866,,,5.760663183,4.148024232,-6.048792475,-7.210357619,5.815687256
4.934391978,2.597452057,0.000385603,-0.002267866,,,5.76095195,0.373718054,-26.8103545,-65.63237361,8.415550232
4.936368146,3.406982257,0.00025793,-0.002648039,,,5.761232828,3.640985546,-6.427238135,-14.10622584,5.0885321
4.936368146,3.406982257,0.00025793,-0.002648039,,,5.766235846,4.214297367,-6.067203271,-6.314867375,6.016225538
4.936480779,4.694096769,-0.000103574,-0.002913796,,,5.766477921,3.573755319,-6.537904555,-15.01858845,5.06882381
4.942292017,1.34361728,0.000366262,-0.001363807,,,5.768201946,1.71454895,-15.3766266,-43.43753342,6.17238069
4.944495615,4.469899914,-3.15696E-05,-0.002893922,,,5.769384056,1.788795578,-14.84185165,-42.23876095,6.098974362
4.944495615,4.469899914,-3.15696E-05,-0.002893922,,,5.771242809,0.798076077,-22.77361706,-58.44455017,7.456611821
4.947655655,3.504260828,0.000236821,-0.002678795,,,5.771614884,4.044714898,-6.088686574,-8.448745451,5.6440266
4.947655655,3.504260828,0.000236821,-0.002678795,,,5.771839297,3.538301099,-6.602730513,-15.47848454,5.071521269
4.948731421,4.572975195,-6.4566E-05,-0.00290119,,,5.773939196,3.905983846,-6.156535891,-10.28746907,5.416072921
4.948731421,4.572975195,-6.4566E-05,-0.00290119,,,5.774793311,1.025054107,-20.79205562,-54.63471516,7.061334473
4.953382515,1.635757354,0.000397823,-0.001605181,,,5.776097192,0.03120375,-30.38817692,-71.20837828,9.482650425
4.953382515,1.635757354,0.000397823,-0.001605181,,,5.778923964,3.874020164,-6.185846262,-10.67632095,5.392245751
4.958943165,3.6015394,0.000214399,-0.002706939,,,5.781098786,2.45225926,-10.60334892,-31.71841581,5.514521707
4.958943165,3.6015394,0.000214399,-0.002706939,,,5.781194974,1.315604619,-18.39794943,-49.78424176,6.653048236
4.958943165,3.6015394,0.000214399,-0.002706939,,,5.781802402,3.72912888,-6.326165653,-12.66197558,5.237574225
4.958943165,3.6015394,0.000214399,-0.002706939,,,5.786381361,3.474680928,-6.729035779,-16.26168162,5.09880957
4.958943165,3.6015394,0.000214399,-0.002706939,,,5.78758814,1.539937128,-16.65052135,-46.06993997,6.396081225
4.958943165,3.6015394,0.000214399,-0.002706939,,,5.788790743,3.347429069,-7.010649251,-18.10112099,5.08325793
4.962191833,3.114634095,0.000317038,-0.002521185,,,5.791356548,3.082868613,-7.776987943,-22.01191449,5.132906867
4.962191833,3.114634095,0.000317038,-0.002521185,,,5.791574001,3.975278069,-6.148978584,-9.178213756,5.607112057
4.967319243,3.712442392,0.000187156,-0.002737521,,,5.79325042,2.670704263,-9.465578371,-28.24506953,5.373163228
4.967319243,3.712442392,0.000187156,-0.002737521,,,5.793698198,3.20781808,-7.383592738,-20.12172521,5.106924322
4.972800693,1.927358045,0.000414022,-0.001823912,,,5.794485692,3.254212399,-7.251950376,-19.42461572,5.103237292
4.972800693,1.927358045,0.000414022,-0.001823912,,,5.794786286,1.965343395,-13.59238101,-39.19480144,5.981391797
4.97569532,3.823345384,0.000158419,-0.002764817,,,5.797077602,2.187932679,-12.14338602,-35.67389896,5.783756553
4.97569532,3.823345384,0.000158419,-0.002764817,,,5.801500423,2.858050937,-8.618987212,-25.31032989,5.270451215
4.978454472,2.848732042,0.000360024,-0.002390571,,,5.802260671,1.139402277,-19.79494721,-52.48971923,6.926173891
4.978454472,2.848732042,0.000360024,-0.002390571,,,5.803625432,1.201344284,-19.28650946,-51.45464288,6.84037574
4.984071398,3.934248377,0.00012828,-0.002788835,,,5.81032907,2.935511784,-8.302734,-24.05199529,5.25268996
4.984071398,3.934248377,0.00012828,-0.002788835,,,5.812712417,2.810807886,-8.812598665,-25.92170945,5.33072528
4.987634249,2.209847871,0.000414441,-0.002016414,,,5.814068247,3.777686147,-6.309217884,-11.66617143,5.416595646
4.992447476,4.045151369,9.68352E-05,-0.002809589,,,5.815005905,0.404490653,-26.3605763,-64.65088525,8.401541053
4.992447476,4.045151369,9.68352E-05,-0.002809589,,,5.816102485,3.950749584,-6.201386152,-9.265071071,5.674795999
4.992447476,4.045151369,9.68352E-05,-0.002809589,,,5.818849282,4.089838133,-6.186036778,-7.38563419,5.970978735
4.992447476,4.045151369,9.68352E-05,-0.002809589,,,5.820221646,2.358122092,-11.10120745,-32.80426251,5.692551115
4.992447476,4.045151369,9.68352E-05,-0.002809589,,,5.823628144,2.301770723,-11.42797718,-33.64646774,5.748454913
4.992447476,4.045151369,9.68352E-05,-0.002809589,,,5.823961801,0.766063532,-22.95689358,-58.50664034,7.586389024
5,0,0,0,,,5.832387285,3.394616334,-6.907945458,-16.98475786,5.233598923
5,5,-0.000213317,-0.002891641,,,5.835552289,3.272288274,-7.20113947,-18.75878911,5.232217214
5,5,-0.000213317,-0.002891641,,,5.84062395,3.79351132,-6.327972063,-11.1792156,5.542951452
5,5,-0.000213317,-0.002891641,,,5.841461109,1.56941457,-16.37052855,-45.0829755,6.461812688
5.003664007,2.470514039,0.000402319,-0.002175723,,,5.841501242,4.139031971,-6.252134285,-6.510697146,6.206546181
5.004677016,0.29871434,0.000117138,-0.000334623,,,5.842409436,3.182761664,-7.448793792,-20.02377136,5.26172334
5.006586248,4.162741952,6.21553E-05,-0.002825858,,,5.847276234,1.934654431,-13.75184184,-39.17831021,6.123489309
5.006586248,4.162741952,6.21553E-05,-0.002825858,,,5.848958783,3.64650697,-6.485548457,-13.17058616,5.421026485
5.009354032,0.59742868,0.000214015,-0.000650557,,,5.852673056,4.033646272,-6.259783844,-7.778153273,6.005753991
5.009354032,0.59742868,0.000214015,-0.000650557,,,5.85948227,3.040865409,-7.896038622,-21.9840849,5.349679209
5.009354032,0.59742868,0.000214015,-0.000650557,,,5.86292101,2.713909463,-9.213079558,-26.9140125,5.531166003
5.009354032,0.59742868,0.000214015,-0.000650557,,,5.865287795,0.182221302,-28.46384562,-67.94181283,9.104435317
5.009354032,0.59742868,0.000214015,-0.000650557,,,5.872982461,3.255546483,-7.244483787,-18.63622732,5.350347232
5.009354032,0.59742868,0.000214015,-0.000650557,,,5.874107316,3.480202352,-6.752705606,-15.31585379,5.403005101
5.010590539,3.016843077,0.000337024,-0.002461749,,,5.87545804,3.89139403,-6.324506349,-9.464716062,5.831737621
5.010590539,3.016843077,0.000337024,-0.002461749,,,5.87720154,4.009117788,-6.311969927,-7.84710649,6.065875437
5.012250641,4.878878425,-0.000169412,-0.002886133,,,5.878279859,3.353061466,-7.008765115,-17.13848128,5.375969912
5.012250641,4.878878425,-0.000169412,-0.002886133,,,5.879657119,3.8644684,-6.341364833,-9.791537146,5.805118774
5.015220979,0.89587245,0.000291455,-0.000946551,,,5.87995397,3.580897441,-6.596558807,-13.79633427,5.482929146
5.020725021,4.280332535,2.61464E-05,-0.002838412,,,5.880627102,3.212414192,-7.35992711,-19.20178816,5.375823914
5.020725021,4.280332535,2.61464E-05,-0.002838412,,,5.884990423,0.986557029,-20.94068306,-54.2580815,7.273323046
5.020889965,2.709356548,0.000380975,-0.002305758,,,5.885315346,3.54544322,-6.651700675,-14.25346354,5.477767873
5.020889965,2.709356548,0.000380975,-0.002305758,,,5.886376509,2.486595371,-10.33236743,-30.17466046,5.756992764
5.021087926,1.194316221,0.000350263,-0.001222303,,,5.886670305,3.929659477,-6.334885476,-8.822011313,5.948022661
5.021087926,1.194316221,0.000350263,-0.001222303,,,5.892960248,1.348281289,-18.00363534,-48.19266497,6.79191075
5.023134234,3.230260104,0.000299248,-0.00254994,,,5.89669919,4.080191595,-6.374181761,-6.689347562,6.324174749
5.023134234,3.230260104,0.000299248,-0.00254994,,,5.900936961,3.670812326,-6.50626592,-12.28901824,5.637567424
5.024501282,4.757756851,-0.00012857,-0.00287806,,,5.905140555,0.553421557,-24.71599292,-61.34485295,8.137932047
5.024501282,4.757756851,-0.00012857,-0.00287806,,,5.906269522,2.1575189,-12.24068359,-35.09086999,6.066843093
5.032178425,1.486456294,0.000390875,-0.00147136,,,5.906366866,3.803359798,-6.410729168,-10.35856415,5.821248268
5.034421743,3.327538675,0.000280043,-0.002584222,,,5.906674171,0.615337642,-24.14390069,-60.28711155,7.999227153
5.034863793,4.397923119,-1.10578E-05,-0.002847331,,,5.909810362,3.338958482,-7.046310513,-17.02511259,5.474958649
5.034863793,4.397923119,-1.10578E-05,-0.002847331,,,5.91522261,3.101799963,-7.680051628,-20.50866967,5.496669745
5.036751924,4.636635276,-8.86533E-05,-0.002866994,,,5.91934175,0.212993901,-27.97842275,-66.95585549,9.074171655
5.036751924,4.636635276,-8.86533E-05,-0.002866994,,,5.925639265,2.517052606,-10.14119563,-29.31456918,5.835607689
5.043268923,1.778596368,0.00041487,-0.001699938,,,5.925817197,4.051073588,-6.435553837,-6.754687769,6.387510918
5.043268923,1.778596368,0.00041487,-0.001699938,,,5.926951946,0.438753721,-25.73776529,-63.08234958,8.443532527
5.043268923,1.778596368,0.00041487,-0.001699938,,,5.927492664,3.686637499,-6.519534942,-11.78192944,5.753651327
5.043268923,1.778596368,0.00041487,-0.001699938,,,5.929758409,1.716283273,-15.20891993,-41.85388958,6.48576744
5.043268923,1.778596368,0.00041487,-0.001699938,,,5.930754197,1.778827295,-14.76181009,-40.8407125,6.433396172
5.043268923,1.778596368,0.00041487,-0.001699938,,,5.931754657,2.954070137,-8.177126991,-22.57080966,5.591186544
5.045709253,3.424817247,0.000259402,-0.002615898,,,5.932245921,3.463769446,-6.809493583,-14.95433936,5.592175392
5.049002565,4.515513702,-4.93305E-05,-0.002852736,,,5.933904703,3.974782712,-6.430810867,-7.693489251,6.245875259
5.049002565,4.515513702,-4.93305E-05,-0.002852736,,,5.934145657,0.729182638,-23.06652528,-58.11514413,7.791931689
5.049002565,4.515513702,-4.93305E-05,-0.002852736,,,5.937709415,0.954544485,-21.12495902,-54.29507561,7.392371784
5.049002565,4.515513702,-4.93305E-05,-0.002852736,,,5.937758395,0.03704228,-29.75638238,-69.74759871,9.682883611
5.049002565,4.515513702,-4.93305E-05,-0.002852736,,,5.946833217,1.377758731,-17.71499523,-47.18422748,6.844156461
5.049002565,4.515513702,-4.93305E-05,-0.002852736,,,5.947416484,3.126778718,-7.597814103,-19.80193644,5.587441558
5.049002565,4.515513702,-4.93305E-05,-0.002852736,,,5.952435192,1.602039154,-16.01979924,-43.47110698,6.630725455
5.055539773,3.640907229,0.000208134,-0.002682857,,,5.957106119,1.895413529,-13.92700793,-38.71674692,6.390926988
5.055539773,3.640907229,0.000208134,-0.002682857,,,5.958567918,2.882056702,-8.438916815,-23.38969899,5.698072346
5.056996762,3.522095818,0.000237367,-0.002644963,,,5.95875947,2.126829936,-12.3940076,-35.04625374,6.213260673
5.056996762,3.522095818,0.000237367,-0.002644963,,,5.96333479,3.58957055,-6.652907647,-12.7900265,5.7865465
5.057692308,4.942307692,-0.000193009,-0.002867206,,,5.963776424,3.449666463,-6.849460066,-14.82588118,5.690053495
5.058102479,2.061086194,0.000423045,-0.001900336,,,5.964559178,1.129612299,-19.64777248,-51.11358652,7.169452215
5.058989246,2.919052058,0.000355884,-0.002400476,,,5.965268051,2.595124589,-9.714033461,-27.71081629,5.883994517
5.058989246,2.919052058,0.000355884,-0.002400476,,,5.966179299,1.203144269,-19.0577436,-49.87593724,7.076378239
5.063915851,3.751810221,0.000179599,-0.002711178,,,5.969699333,3.547482494,-6.708984765,-13.33167048,5.773514255
5.069942949,4.821186118,-0.000151827,-0.002859461,,,5.969779911,2.834813651,-8.622558463,-23.99353948,5.752096893
5.07153294,3.132469085,0.000320848,-0.002492811,,,5.972920194,3.265071531,-7.22637581,-17.46238717,5.661505085
5.072291929,3.862713213,0.000149566,-0.002736231,,,5.973523248,3.720737887,-6.550167186,-10.7942434,5.967576224
5.072936036,2.343576021,0.000416453,-0.002080877,,,5.979359902,3.228737666,-7.315989999,-17.93689053,5.678048258
5.072936036,2.343576021,0.000416453,-0.002080877,,,5.980150156,2.369825505,-10.90828488,-31.03814658,6.081774115
5.080668007,3.973616205,0.000118136,-0.002758033,,,5.980286975,3.328463666,-7.085225792,-16.43975494,5.696389614
5.080668007,3.973616205,0.000118136,-0.002758033,,,5.984194044,2.302930237,-11.29379109,-32.03620993,6.14103861
5.08219359,4.700064543,-0.000111587,-0.002849568,,,5.984346597,2.732467817,-9.052839793,-25.40697514,5.847743316
5.085671841,0.14935717,6.23559E-05,-0.000168357,,,5.984740835,3.995792379,-6.554433514,-6.829574102,6.517055961
5.089184079,4.078186372,8.73158E-05,-0.002775368,,,5.992090803,3.916596612,-6.54291083,-7.832517406,6.370867206
5.089184079,4.078186372,8.73158E-05,-0.002775368,,,5.994859328,3.608356769,-6.66290125,-12.17150725,5.915386122
5.090161994,2.58241853,0.000400018,-0.002216534,,,6.00192638,0.073572737,-29.14182896,-68.57598394,9.631887231
5.090348858,0.44807151,0.000171249,-0.000491229,,,6.007129505,3.530740703,-6.759592174,-13.16432999,5.888185077
5.090348858,0.44807151,0.000171249,-0.000491229,,,6.0076118,0.290711597,-26.93843593,-64.85745943,8.938236861
5.094444231,4.578942969,-7.16692E-05,-0.002836846,,,6.008709025,2.989527779,-8.023443812,-21.23168028,5.796562361
5.094444231,4.578942969,-7.16692E-05,-0.002836846,,,6.010493625,3.15803291,-7.502076246,-18.66491016,5.770780243
5.096628664,0.743419543,0.00025902,-0.000791384,,,6.011787364,3.790296933,-6.57846721,-9.374244878,6.215435909
5.096628664,0.743419543,0.00025902,-0.000791384,,,6.01182249,3.874496838,-6.575459179,-8.189365312,6.366587537
5.102495611,1.041863313,0.000328398,-0.001074765,,,6.016021569,3.847571208,-6.581253926,-8.517774939,6.331954353
5.103322851,4.195776955,5.13521E-05,-0.002789422,,,6.022007006,3.414049684,-6.939018631,-14.71568913,5.861364707
5.107387952,2.82126104,0.000373512,-0.002337437,,,6.022081553,0.87489331,-21.65330182,-54.82339002,7.624451446
5.107387952,2.82126104,0.000373512,-0.002337437,,,6.026759362,2.40598159,-10.67110982,-29.99503356,6.17214235
5.107387952,2.82126104,0.000373512,-0.002337437,,,6.027142415,1.09160989,-19.86901576,-51.13324038,7.302902278
5.107387952,2.82126104,0.000373512,-0.002337437,,,6.030132433,1.238137231,-18.70508955,-48.66161217,7.124229486
5.107387952,2.82126104,0.000373512,-0.002337437,,,6.03389616,1.453874043,-17.04765427,-45.0641968,6.906269172
5.107387952,2.82126104,0.000373512,-0.002337437,,,6.035031958,3.67331209,-6.657959258,-10.77869956,6.131834259
5.110974334,1.337155235,0.000378917,-0.001334539,,,6.035796064,3.590529248,-6.720967777,-11.96947053,6.039950141
5.115384615,4.884615385,-0.000174635,-0.00284026,,,6.040902899,3.014506535,-7.930404663,-20.50729885,5.880279882
5.117461623,4.313367539,1.41163E-05,-0.00279984,,,6.041701698,3.555001238,-6.761486563,-12.42061736,6.02579148
5.119931646,3.034678067,0.000341392,-0.002433842,,,6.043291472,2.043980383,-12.8660988,-35.4794421,6.466016383
5.122064832,1.629295309,0.000411836,-0.00157074,,,6.046505381,2.266499064,-11.46546194,-31.95622747,6.318207052
5.122064832,1.629295309,0.000411836,-0.00157074,,,6.049505327,2.535983956,-9.957094171,-27.74472834,6.141678236
5.127635257,4.76349381,-0.000134633,-0.002830843,,,6.06000623,3.920526983,-6.691802296,-6.973948425,6.657894649
5.128570709,1.912324517,0.000427454,-0.001780805,,,6.064167984,0.036530457,-29.30377203,-68.65045542,9.836572027
5.128570709,1.912324517,0.000427454,-0.001780805,,,6.069444798,3.463085682,-6.893493615,-13.45556003,6.042988066
5.131600395,4.430958122,-2.42159E-05,-0.002806743,,,6.069516328,3.658294507,-6.710439553,-10.59484818,6.234771794
5.131600395,4.430958122,-2.42159E-05,-0.002806743,,,6.074183977,2.713641377,-9.086123163,-24.74549906,6.097627493
5.132475341,3.248095093,0.000301871,-0.00251841,,,6.074794861,2.9036792,-8.307301731,-21.82707269,6.009270392
5.132475341,3.248095093,0.000301871,-0.00251841,,,6.077333017,2.395105389,-10.69718259,-29.62908633,6.305538237
5.139885898,4.642372236,-9.44837E-05,-0.002819327,,,6.082766012,3.071237639,-7.744031758,-19.18699433,5.986943783
5.139885898,4.642372236,-9.44837E-05,-0.002819327,,,6.083873414,3.341618493,-7.093782963,-15.09743996,6.021476547
5.143404266,2.194814344,0.000428537,-0.001969178,,,6.084527695,3.763288719,-6.702345058,-8.902801083,6.44383499
5.14376285,3.345373665,0.000281785,-0.002550909,,,6.088104729,2.847596507,-8.515830023,-22.53947231,6.068019335
5.152136381,3.680275057,0.000200861,-0.002655546,,,6.091757397,0.210907252,-27.45753426,-65.44603357,9.268257622
5.152136381,3.680275057,0.000200861,-0.002655546,,,6.091867752,1.127363676,-19.50100847,-49.88739388,7.338382854
5.152136539,4.521250661,-5.45812E-05,-0.002805124,,,6.092107664,2.52682204,-9.977164253,-27.43118918,6.256479156
5.152136539,4.521250661,-5.45812E-05,-0.002805124,,,6.09323765,1.200359047,-18.92744435,-48.653146,7.253050406
5.153593371,3.561463647,0.000231434,-0.002619911,,,6.095970569,0.436708184,-25.32071162,-61.55792583,8.622622792
5.15505036,3.442652237,0.000260226,-0.002580796,,,6.098567791,3.48352232,-6.88939921,-12.81594635,6.151488139
5.15505036,3.442652237,0.000260226,-0.002580796,,,6.10316428,0.727137101,-22.75317901,-56.53740143,7.97691585
5.159434023,2.455480512,0.000416543,-0.002124634,,,6.10684408,2.297932939,-11.23739949,-30.82408891,6.442364074
5.160512459,3.79117805,0.000171012,-0.002681523,,,6.106912236,3.282087678,-7.216377591,-15.72680742,6.069963142
5.166666667,0,0,0,,,6.110125063,0.952457836,-20.87388649,-52.64674708,7.599013017
5.168330353,2.936887048,0.000360771,-0.002373107,,,6.111333167,2.355000428,-10.90257391,-29.88715197,6.415883552
5.168330353,2.936887048,0.000360771,-0.002373107,,,6.112909418,3.863981367,-6.779071128,-7.11916231,6.741380707
5.168888537,3.902081042,0.000139668,-0.002704253,,,6.113012527,2.933331728,-8.186519205,-20.95255788,6.102695427
5.168888537,3.902081042,0.000139668,-0.002704253,,,6.113351945,3.245753813,-7.294236214,-16.2002241,6.079688825
5.171343683,0.29871434,0.000121617,-0.00032959,,,6.114080064,3.171187737,-7.468442365,-17.3191464,6.071527278
5.171343683,0.29871434,0.000121617,-0.00032959,,,6.116786313,2.704479461,-9.103562639,-24.4223872,6.214303283
5.173076923,4.826923077,-0.000157303,-0.002811057,,,6.117894186,3.832017685,-6.77533726,-7.511829138,6.694023813
5.176659981,2.694323021,0.00039488,-0.002251086,,,6.118228731,1.373484423,-17.57565463,-45.51912976,7.110102509
5.176659981,2.694323021,0.00039488,-0.002251086,,,6.119012064,3.748271136,-6.760641364,-8.699469469,6.54343824
5.177040184,0.594857286,0.000221202,-0.000637587,,,6.12045378,1.597849061,-15.91159272,-41.81332197,6.93015196
5.177040184,0.594857286,0.000221202,-0.000637587,,,6.123771012,0.550775596,-24.23231312,-59.34520743,8.369314431
5.177404609,4.006651209,0.000108846,-0.002722455,,,6.125124708,1.891223436,-13.83544977,-37.03518129,6.742942874
5.180874047,3.150304075,0.000324059,-0.002461715,,,6.125304628,0.612691681,-23.68886436,-58.27278825,8.232127818
5.183903296,0.889410406,0.000300554,-0.000924455,,,6.128871882,3.598938953,-6.817020778,-10.75363519,6.363655167
5.183903296,0.889410406,0.000300554,-0.000924455,,,6.130154984,2.122555628,-12.30109055,-33.31750727,6.609557176
5.185327564,4.705801502,-0.00011751,-0.002800294,,,6.133846682,3.569010797,-6.842031511,-11.13390115,6.345870044
5.185327564,4.705801502,-0.00011751,-0.002800294,,,6.135278599,3.650295121,-6.801191739,-9.923113,6.450587903
5.185920681,4.111221375,7.68898E-05,-0.002737814,,,6.138678384,2.836720306,-8.537054299,-22.14667984,6.207465759
5.185920681,4.111221375,7.68898E-05,-0.002737814,,,6.144188604,0.179703503,-27.59025193,-65.49587477,9.419659855
5.189770243,1.187854176,0.000361671,-0.0011949,,,6.146571272,3.027925754,-7.865351734,-19.12836526,6.170278645
5.189770243,1.187854176,0.000361671,-0.0011949,,,6.147095293,1.710863266,-15.08076864,-39.69544949,6.899770068
5.197578206,4.584679928,-7.73583E-05,-0.002787404,,,6.148091081,1.773407288,-14.6381958,-38.67594703,6.861556893
5.200059453,4.228811959,3.96675E-05,-0.002749568,,,6.149470778,3.369393849,-7.078110294,-13.91805578,6.232567031
5.200860742,1.47999425,0.000403902,-0.001438582,,,6.156297795,2.919420565,-8.22177229,-20.6787839,6.223347256
5.200860742,1.47999425,0.000403902,-0.001438582,,,6.158613825,3.509911536,-6.914330675,-11.70873948,6.364625209
5.208896331,1.772114882,0.000428696,-0.001662306,,,6.158830922,3.814190164,-6.850191637,-7.251877663,6.808559195
5.208896331,1.772114882,0.000428696,-0.001662306,,,6.164648521,0.982576181,-20.55224237,-51.5862141,7.61423981
5.213872496,2.046052667,0.000436514,-0.001854058,,,6.165102237,2.552148918,-9.802509805,-26.23991077,6.425698422
5.213872496,2.046052667,0.000436514,-0.001854058,,,6.168653784,2.878891836,-8.364344204,-21.16061888,6.269905933
5.214198226,4.346402542,1.26583E-06,-0.002757774,,,6.171387429,1.341660761,-17.7671636,-45.48929511,7.214586473
5.214198226,4.346402542,1.26583E-06,-0.002757774,,,6.173542715,3.719854167,-6.850666118,-8.43159508,6.686325348
5.228706052,2.328542493,0.000430336,-0.002030228,,,6.174425174,2.463549542,-10.25916367,-27.50923789,6.502855893
5.228706052,2.328542493,0.000430336,-0.002030228,,,6.178593772,3.389830487,-7.065446765,-13.26212906,6.331166855
5.229272753,3.052513056,0.000345155,-0.002403256,,,6.180983218,2.149034958,-12.10260905,-32.34606233,6.709313463
5.229272753,3.052513056,0.000345155,-0.002403256,,,6.183034002,3.016207241,-7.895227946,-18.88818449,6.270725058
5.230769231,4.769230769,-0.000140383,-0.002779809,,,6.184180783,2.689492146,-9.134902851,-23.90253881,6.396418564
5.230769231,4.769230769,-0.000140383,-0.002779809,,,6.1870769,3.157214085,-7.508321165,-16.68515839,6.275108647
5.234734369,4.436695081,-2.918E-05,-0.002756884,,,6.203066288,2.429765845,-10.42492405,-27.71386691,6.593919744
5.240961069,2.819196254,0.000383407,-0.002292948,,,6.20605201,0.399758044,-25.36387643,-61.14128401,8.815893717
5.240961069,2.819196254,0.000383407,-0.002292948,,,6.20605543,3.297844657,-7.221882194,-14.31904726,6.362700894
5.241816448,3.265930083,0.000303833,-0.002483989,,,6.213700072,3.254712366,-7.302878481,-14.8817808,6.368281078
5.241816448,3.265930083,0.000303833,-0.002483989,,,6.215007905,0.761330923,-22.25883736,-54.84349077,8.017395223
5.243019872,4.648109195,-0.000100429,-0.00276795,,,6.217400787,3.759872662,-6.940002151,-7.28306829,6.907207403
5.24593201,2.567385003,0.0004138,-0.002162091,,,6.21856582,2.781310587,-8.723841479,-22.09213315,6.439242957
5.24593201,2.567385003,0.0004138,-0.002162091,,,6.220480233,3.437480344,-7.038137838,-12.03110498,6.489009382
5.24873299,3.719642886,0.000192514,-0.002624831,,,6.223539631,3.145495572,-7.539603547,-16.4301818,6.373371842
5.24873299,3.719642886,0.000192514,-0.002624831,,,6.225525555,0.030772599,-28.75808214,-67.2901917,10.02297509
5.250189979,3.600831476,0.00022445,-0.00259154,,,6.230193506,1.559720255,-16.11370043,-41.25624087,7.137686844
5.251646968,3.482020065,0.000254599,-0.002554797,,,6.231728815,3.661668067,-6.940319173,-8.540418644,6.785045438
5.252338508,0.14935717,6.46916E-05,-0.000165797,,,6.236008631,1.924960116,-13.54320596,-35.28220024,6.950342935
5.252338508,0.14935717,6.46916E-05,-0.000165797,,,6.240627624,3.322105192,-7.198506022,-13.52694582,6.471166679
5.253103957,3.363208655,0.000282835,-0.002514598,,,6.243816557,2.816835124,-8.571058296,-21.24970075,6.488266601
5.253103957,3.363208655,0.000282835,-0.002514598,,,6.253550133,0.144344603,-27.55935632,-65.08275604,9.63428363
5.255270513,4.52698762,-6.01397E-05,-0.002753888,,,6.253633014,3.613650186,-6.974098721,-8.968596479,6.782806453
5.255270513,4.52698762,-6.01397E-05,-0.002753888,,,6.253801234,3.016269772,-7.884100509,-18.05239979,6.457029869
5.257109067,3.830545878,0.000161328,-0.00264837,,,6.2538352,2.946073646,-8.103120732,-19.13476729,6.470809519
5.257109067,3.830545878,0.000161328,-0.00264837,,,6.255064041,3.521284482,-7.005270112,-10.33279898,6.67113004
5.258035009,0.445500116,0.000176577,-0.000480634,,,6.255582355,2.281461931,-11.24534086,-29.43253208,6.806541366
5.264314816,0.740848149,0.00026741,-0.000775384,,,6.256111392,1.130427325,-19.28524888,-48.1328119,7.527504063
5.26562514,3.935116045,0.000130565,-0.002667319,,,6.25698534,3.240801203,-7.342964286,-14.5646847,6.482606221
5.271177928,1.035401269,0.000338379,-0.001049466,,,6.257265369,1.191917311,-18.81649578,-47.08246685,7.46459598
5.271177928,1.035401269,0.000338379,-0.001049466,,,6.258483217,0.368554294,-25.49809883,-61.17160382,8.941575448
5.274141212,4.039686212,9.85827E-05,-0.002683414,,,6.258607814,3.58372203,-6.985807489,-9.350764299,6.757230628
5.279656651,1.330693191,0.000390805,-0.001303651,,,6.259363881,2.329534555,-10.95957318,-28.63789583,6.788860024
5.279656651,1.330693191,0.000390805,-0.001303651,,,6.264243663,2.911932974,-8.215065647,-19.53830268,6.506559776
5.282657284,4.144256379,6.55007E-05,-0.002696701,,,6.26487643,2.627466276,-9.37753719,-23.93768295,6.632705293
5.282657284,4.144256379,6.55007E-05,-0.002696701,,,6.269531364,0.791449269,-21.91852801,-53.77236013,8.010832358
5.28769224,1.622813823,0.000424786,-0.001534743,,,6.276982494,3.401432012,-7.119802081,-11.86375065,6.622985116
5.288461538,4.711538462,-0.000123555,-0.002746769,,,6.27783398,1.016169014,-20.13699219,-49.84208875,7.684415855
5.290215154,3.168139065,0.000326603,-0.002427773,,,6.279319865,3.310391864,-7.235767721,-13.22182611,6.571818873
5.290215154,3.168139065,0.000326603,-0.002427773,,,6.281710761,2.168186609,-11.92629173,-30.91147637,6.927958154
5.294198117,1.905843032,0.000441169,-0.001739403,,,6.283246924,1.304599235,-17.94828785,-44.90874224,7.393303755
5.296796056,4.261846962,2.70537E-05,-0.002706037,,,6.283352204,1.527896593,-16.31213379,-41.19386894,7.239391865
5.296796056,4.261846962,2.70537E-05,-0.002706037,,,6.285115286,3.11621987,-7.614503168,-16.13112286,6.533743874
5.299174282,2.179780816,0.00044189,-0.001919483,,,6.286036131,0.543011762,-23.9252471,-57.88639068,8.519804882
5.299174282,2.179780816,0.00044189,-0.001919483,,,6.286836865,1.951439447,-13.3399733,-34.28547491,7.041750629
5.30071218,4.590416887,-8.3343E-05,-0.00273399,,,6.287856702,0.616512959,-23.30865173,-56.59838824,8.359130241
5.30190347,2.934822262,0.000369853,-0.002325484,,,6.28803294,3.272220166,-7.29925161,-13.69626217,6.577595961
5.310233098,2.692258236,0.000404952,-0.002207014,,,6.292666183,3.684607266,-7.045085867,-7.393253414,7.014813954
5.315204039,2.440446984,0.000430049,-0.002070627,,,6.299448713,2.393680201,-10.56965935,-27.17398262,6.848480122
5.315204039,2.440446984,0.000430049,-0.002070627,,,6.302624065,2.856126599,-8.40027415,-19.94294211,6.620893608
5.3173322,4.352139501,-3.49078E-06,-0.002705737,,,6.303485967,2.560974714,-9.67883006,-24.51978692,6.76412235
5.333333333,0,0,0,,,6.308450753,1.701076078,-15.06164591,-38.07459674,7.191710521
5.333333333,0,0,0,,,6.309576142,3.391564916,-7.154613395,-11.59456971,6.705537453
5.333333333,0,0,0,,,6.309632862,1.775322705,-14.53950719,-36.85560314,7.161663217
5.337868344,4.44243204,-3.46438E-05,-0.002703205,,,6.321717646,3.509835079,-7.085319055,-9.63379965,6.851220281
5.339029834,0.296142946,0.000124928,-0.000321493,,,6.322947964,2.701078337,-9.013001812,-22.10887215,6.737587069
5.344726335,0.592285893,0.00022793,-0.000624009,,,6.326284246,3.177320924,-7.484645391,-14.67381094,6.647528818
5.344726335,0.592285893,0.00022793,-0.000624009,,,6.332127081,2.527191017,-9.833730494,-24.70802901,6.852296261
5.345329598,3.759010715,0.000183015,-0.002590525,,,6.341908901,0.290341191,-25.94530762,-61.71235991,9.22521715
5.345329598,3.759010715,0.000183015,-0.002590525,,,6.345923143,3.627097943,-7.113526514,-7.530419378,7.079381682
5.345329598,3.759010715,0.000183015,-0.002590525,,,6.348198701,2.736602875,-8.849306993,-21.25134698,6.781783876
5.345329598,3.759010715,0.000183015,-0.002590525,,,6.348277736,0.505969482,-24.08895429,-57.90278242,8.648447957
5.345329598,3.759010715,0.000183015,-0.002590525,,,6.351828777,3.591569933,-7.114759082,-7.986976013,7.042382308
5.345329598,3.759010715,0.000183015,-0.002590525,,,6.352438186,3.203787693,-7.440307227,-13.93024257,6.720231427
5.346153846,4.653846154,-0.000106767,-0.002712141,,,6.352582039,0.652266745,-22.88365272,-55.31995986,8.330894384
5.346786587,3.640199304,0.000216338,-0.002559675,,,6.354311294,3.499967982,-7.125951977,-9.346982575,6.930397851
5.346786587,3.640199304,0.000216338,-0.002559675,,,6.354521521,3.047468084,-7.787677461,-16.33079217,6.707792234
5.348243576,3.521387894,0.000247876,-0.002525401,,,6.358916707,0.868412805,-21.16788658,-51.51700378,7.95837853
5.348243576,3.521387894,0.000247876,-0.002525401,,,6.363543997,2.015429662,-12.87978449,-32.37976601,7.173541553
5.349700566,3.402576483,0.00027749,-0.002487691,,,6.368931696,3.332209362,-7.258814335,-11.7282955,6.820729289
5.349700566,3.402576483,0.00027749,-0.002487691,,,6.369804544,1.448574253,-16.83665044,-41.54132292,7.40645872
5.351157555,3.283765073,0.000305058,-0.002446543,,,6.369971561,1.80675658,-14.29789849,-35.65234992,7.259282251
5.351157555,3.283765073,0.000305058,-0.002446543,,,6.371555969,1.663297894,-15.30207125,-37.97020688,7.312410399
5.351157555,3.283765073,0.000305058,-0.002446543,,,6.373366803,3.391196892,-7.205229981,-10.75915802,6.874883055
5.351157555,3.283765073,0.000305058,-0.002446543,,,6.376271434,3.300054211,-7.301519921,-12.1284085,6.820232286
5.351157555,3.283765073,0.000305058,-0.002446543,,,6.383319712,2.79410073,-8.602316804,-19.92370527,6.840476545
5.351157555,3.283765073,0.000305058,-0.002446543,,,6.384119792,2.986429561,-7.952476861,-16.90827311,6.785426571
5.351157555,3.283765073,0.000305058,-0.002446543,,,6.390521019,3.579856605,-7.169061729,-7.629686092,7.133016796
5.351589448,0.886839012,0.000309857,-0.000905154,,,6.394528255,2.952288889,-8.051666798,-17.31000486,6.816333597
5.35384567,3.863580882,0.000152373,-0.002610104,,,6.398148049,2.637281646,-9.261153543,-22.19330857,6.950222185
5.35384567,3.863580882,0.000152373,-0.002610104,,,6.399222906,2.468997559,-10.10118088,-24.81274483,7.043747478
5.358404487,4.532724579,-6.62003E-05,-0.002698549,,,6.403344351,2.887324912,-8.257550532,-18.21532055,6.853780051
5.358404487,4.532724579,-6.62003E-05,-0.002698549,,,6.407795206,3.240367174,-7.398876452,-12.63763825,6.869331646
5.35845256,1.181392132,0.00037228,-0.001166119,,,6.407950611,3.47500103,-7.193595536,-8.996598578,7.044778036
5.35845256,1.181392132,0.00037228,-0.001166119,,,6.4126997,0.541846121,-23.64537195,-56.62252867,8.602940597
5.35845256,1.181392132,0.00037228,-0.001166119,,,6.415183432,0.614642187,-23.05730359,-55.32713663,8.446190197
5.35845256,1.181392132,0.00037228,-0.001166119,,,6.41606321,3.088388508,-7.687230248,-14.90337345,6.855140043
5.35845256,1.181392132,0.00037228,-0.001166119,,,6.421643309,0.144344603,-26.97227621,-63.47540205,9.74963653
5.35845256,1.181392132,0.00037228,-0.001166119,,,6.428123449,2.679453176,-9.055496721,-21.16263207,6.998698754
5.362361742,3.968151048,0.000120417,-0.002626808,,,6.429954818,0.368554294,-25.02187593,-59.4752566,9.048688588
5.362361742,3.968151048,0.000120417,-0.002626808,,,6.432148199,2.597176685,-9.431883077,-22.40249749,7.051095562
5.362845871,3.050448271,0.000353306,-0.002352337,,,6.435256456,1.769515736,-14.53823058,-35.49122586,7.385851186
5.366488149,1.473512764,0.000415825,-0.001404456,,,6.436673342,2.145247488,-12.00416086,-29.44857205,7.282099726
5.370877814,4.072721215,8.72682E-05,-0.002640677,,,6.438022973,1.700303677,-15.02118941,-36.58890074,7.4073708
5.370877814,4.072721215,8.72682E-05,-0.002640677,,,6.44221715,3.114855277,-7.63168738,-14.14476338,6.917947667
5.374523739,1.765633396,0.000441635,-0.001622341,,,6.442958921,0.030772599,-27.91217659,-65.24912451,10.18674065
5.374523739,1.765633396,0.000441635,-0.001622341,,,6.443706605,0.788574522,-21.6496967,-51.99782258,8.141356489
5.374534186,2.817131469,0.000392676,-0.002245477,,,6.444913965,1.928039283,-13.44370732,-32.81200773,7.364685616
5.374534186,2.817131469,0.000392676,-0.002245477,,,6.448577528,1.013350907,-19.95309769,-48.05108692,7.835604716
5.379393886,4.177291382,5.30687E-05,-0.002651769,,,6.448945739,3.526100905,-7.240500736,-7.631684832,7.211653628
5.379393886,4.177291382,5.30687E-05,-0.002651769,,,6.450943316,2.768428227,-8.673394563,-19.47925426,7.008686344
5.379393886,4.177291382,5.30687E-05,-0.002651769,,,6.453990472,1.301781128,-17.84587377,-43.05425385,7.590127871
5.379393886,4.177291382,5.30687E-05,-0.002651769,,,6.454411294,2.37074108,-10.61799445,-25.68056668,7.22348873
5.379393886,4.177291382,5.30687E-05,-0.002651769,,,6.456030917,2.251789517,-11.326558,-27.53183424,7.282462576
5.379393886,4.177291382,5.30687E-05,-0.002651769,,,6.457527445,1.525021847,-16.25171782,-39.25840965,7.48830301
5.379499904,2.039571181,0.000449949,-0.001808617,,,6.459812443,2.299862141,-11.03221611,-26.72849564,7.269562513
5.379505127,2.565320217,0.00042393,-0.002118612,,,6.46613671,3.416814931,-7.27260666,-9.086914577,7.128913214
5.384476068,2.313508966,0.000443416,-0.001976862,,,6.47465698,2.66852138,-9.07989205,-20.75055915,7.111049013
5.384476068,2.313508966,0.000443416,-0.001976862,,,6.476845765,2.889016391,-8.229608458,-17.24767429,7.020998462
5.384476068,2.313508966,0.000443416,-0.001976862,,,6.47697309,1.126782023,-19.09297973,-45.78300551,7.743026365
5.384476068,2.313508966,0.000443416,-0.001976862,,,6.477201441,3.171615388,-7.531174819,-12.78273164,7.007746202
5.384476068,2.313508966,0.000443416,-0.001976862,,,6.478127067,1.188272009,-18.64708269,-44.71534886,7.692802782
5.384476068,2.313508966,0.000443416,-0.001976862,,,6.480154906,3.019735958,-7.850969306,-15.14014135,7.001989122
5.39993003,4.267583921,2.24361E-05,-0.002651959,,,6.483455458,2.62061015,-9.293371251,-21.39310979,7.156364656
5.39993003,4.267583921,2.24361E-05,-0.002651959,,,6.48422272,0.398776129,-24.62524541,-58.39503293,8.991451782
5.403846154,4.596153846,-8.99497E-05,-0.002676063,,,6.488932244,3.365347032,-7.317646384,-9.571260366,7.136429845
5.420024659,0.146785776,6.58209E-05,-0.000160298,,,6.490142325,2.759219479,-8.692090967,-19.12422966,7.101097007
5.420024659,0.146785776,6.58209E-05,-0.000160298,,,6.490204181,2.503790853,-9.867755592,-23.14579471,7.23548746
5.420466174,4.35787646,-8.9202E-06,-0.002649792,,,6.492510895,2.979207229,-7.955827189,-15.61693937,7.034064189
5.420466174,4.35787646,-8.9202E-06,-0.002649792,,,6.496271981,3.333191881,-7.344570567,-9.973351574,7.128446354
5.422537871,3.706353192,0.000199093,-0.002540834,,,6.496440891,0.756880271,-21.80312857,-51.98524212,8.223393701
5.422537871,3.706353192,0.000199093,-0.002540834,,,6.499908785,1.896668267,-13.64514064,-32.65159816,7.475258995
5.423788271,3.166074279,0.000333698,-0.002373386,,,6.500565114,3.265985212,-7.408863762,-10.97259246,7.096312948
5.423788271,3.166074279,0.000333698,-0.002373386,,,6.511202506,3.051154922,-7.773823335,-14.22724157,7.067881331
5.42399486,3.587541782,0.00023229,-0.002509593,,,6.513518052,1.556194852,-16.013835,-38.07728598,7.552801438
5.425451849,3.468730371,0.000263602,-0.002474933,,,6.516044773,2.879807644,-8.24703892,-16.87998324,7.109473181
5.42572116,0.442928723,0.000181501,-0.000469626,,,6.524211135,3.450835509,-7.326863068,-7.721154257,7.299546853
5.426908839,3.349918961,0.000292893,-0.002436846,,,6.53309357,0.179703503,-26.27921344,-61.75852542,9.678563737
5.426908839,3.349918961,0.000292893,-0.002436846,,,6.533424492,2.523530783,-9.741963438,-22.28890239,7.321918328
5.432000967,0.738276756,0.000275208,-0.000758567,,,6.536851595,3.1409882,-7.596713087,-12.44924408,7.129819573
5.435476587,2.932757477,0.00037825,-0.00227467,,,6.539044425,2.968275434,-7.97754003,-15.16820497,7.135243798
5.438864079,1.032829875,0.000348319,-0.001026581,,,6.53950888,2.09596238,-12.29313746,-28.96821595,7.515833405
5.438864079,1.032829875,0.000348319,-0.001026581,,,6.548973882,3.043005922,-7.791279891,-13.84278649,7.147389336
5.441002318,4.448168999,-4.08241E-05,-0.002645335,,,6.55968546,0.976056132,-20.10015119,-47.46408536,7.951308692
5.441002318,4.448168999,-4.08241E-05,-0.002645335,,,6.56159195,2.376693267,-10.53147971,-24.24675692,7.462187327
5.442932882,3.793748505,0.000173666,-0.002550905,,,6.564459812,3.000655163,-7.889829605,-14.30655433,7.182430511
5.442932882,3.793748505,0.000173666,-0.002550905,,,6.566424368,1.335140712,-17.54899674,-41.18479377,7.68270712
5.443806215,2.69019345,0.000414354,-0.002160099,,,6.567073178,3.263058286,-7.447190964,-10.07765241,7.23648752
5.445284059,1.324211705,0.000401563,-0.001271625,,,6.567189953,2.750905385,-8.687914861,-18.25192245,7.271557085
5.445284059,1.324211705,0.000401563,-0.001271625,,,6.568669521,3.134123629,-7.614258682,-12.11468553,7.193810777
5.448777156,2.438382199,0.00044012,-0.002027916,,,6.575392818,0.545041482,-23.25486289,-54.86715199,8.666591069
5.448777156,2.438382199,0.00044012,-0.002027916,,,6.57711011,2.682826325,-8.962971877,-19.2031928,7.328083135
5.451448954,3.898318672,0.000141763,-0.002568044,,,6.577485069,0.606363577,-22.78731227,-53.76116749,8.53673556
5.453319648,1.616332337,0.000436784,-0.001496663,,,6.57761324,3.392764384,-7.386407568,-7.856219215,7.354829995
5.457622338,4.209891613,4.01919E-05,-0.002613146,,,6.58452179,2.642466767,-9.137157946,-19.74696977,7.366355809
5.457622338,4.209891613,4.01919E-05,-0.002613146,,,6.586326315,3.354592687,-7.403182332,-8.33627687,7.338452683
5.459825525,1.899361546,0.000453901,-0.00169539,,,6.587214593,2.844129567,-8.339157772,-16.49866442,7.270864212
5.459965026,4.002888839,0.000108567,-0.002582311,,,6.587361473,0.209925337,-25.84661454,-60.67968823,9.593878479
5.461538462,4.538461538,-7.30523E-05,-0.002638664,,,6.5945037,2.064591364,-12.49360093,-28.7786253,7.634191782
5.461538462,4.538461538,-7.30523E-05,-0.002638664,,,6.596462596,0.432102329,-24.06742719,-56.64541144,8.942658407
5.461538462,4.538461538,-7.30523E-05,-0.002638664,,,6.598891105,3.256193715,-7.470352443,-9.727433523,7.296462879
5.46480169,2.173299331,0.000454875,-0.001869728,,,6.601955816,2.561591371,-9.510972127,-20.80223617,7.450034961
5.46480169,2.173299331,0.000454875,-0.001869728,,,6.604656622,0.036530457,-27.21489355,-63.57811643,10.23667442
5.468481098,4.107459006,7.42177E-05,-0.002593751,,,6.604812261,2.396433197,-10.39549581,-23.38050248,7.547356985
5.468481098,4.107459006,7.42177E-05,-0.002593751,,,6.605112459,2.224174238,-11.44315459,-26.10351987,7.620067066
5.472524337,3.270533829,0.000313054,-0.002390082,,,6.60627669,0.719745026,-21.89317219,-51.44699584,8.333707153
5.472524337,3.270533829,0.000313054,-0.002390082,,,6.607991462,1.768241352,-14.52759679,-33.41014657,7.668021375
5.478158482,4.300184153,8.69682E-06,-0.002611163,,,6.609601546,2.281241727,-11.08263731,-25.14131922,7.609264044
5.496418988,3.048383485,0.000360704,-0.002298006,,,6.610321926,1.70993836,-14.93305814,-34.34408545,7.669653402
5.496418988,3.048383485,0.000360704,-0.002298006,,,6.612419746,0.944361882,-20.26681687,-47.42578705,8.014871512
5.498694625,4.390476692,-2.34507E-05,-0.002606786,,,6.621507432,1.868278071,-13.83369926,-31.60174587,7.693916912
5.499746144,3.65369567,0.000215085,-0.002489933,,,6.622414975,1.366313717,-17.31220808,-39.98919377,7.721019896
5.499746144,3.65369567,0.000215085,-0.002489933,,,6.623439664,2.898512339,-8.153633481,-15.1330519,7.322235332
5.5,0,0,0,,,6.62409769,3.346443687,-7.436976974,-7.905629191,7.406273149
5.501203133,3.534884259,0.00024811,-0.002458391,,,6.626449346,3.139415842,-7.616959494,-11.20765674,7.306745912
5.502660122,3.416072849,0.000279148,-0.002423431,,,6.628025076,3.074768075,-7.725669875,-12.22851132,7.302310242
5.502660122,3.416072849,0.000279148,-0.002423431,,,6.632438906,1.594797037,-15.73152057,-35.98918321,7.697319119
5.506715986,0.293571553,0.000127914,-0.000313169,,,6.640878424,1.118302305,-19.01862557,-44.05861438,7.863895831
5.506715986,0.293571553,0.000127914,-0.000313169,,,6.641070144,3.039092559,-7.795631215,-12.61897887,7.326758855
5.508107303,2.815066683,0.000401215,-0.002194947,,,6.642248322,1.191297675,-18.51222868,-42.77264814,7.815159902
5.508107303,2.815066683,0.000401215,-0.002194947,,,6.644849128,2.92578844,-8.068532506,-14.39641842,7.35413843
5.512412487,0.589714499,0.000234112,-0.000609826,,,6.649813019,3.233785666,-7.514978055,-9.340683656,7.381070159
5.512412487,0.589714499,0.000234112,-0.000609826,,,6.657144204,2.463334892,-9.991990746,-21.63657125,7.624307107
5.513078244,2.563255432,0.000433346,-0.002072435,,,6.660908804,2.304675192,-10.91812851,-24.1052448,7.710562377
5.513078244,2.563255432,0.000433346,-0.002072435,,,6.669078586,0.072407096,-26.66289555,-62.3020691,10.10994491
5.519230769,4.480769231,-5.60541E-05,-0.002600068,,,6.670397353,2.186933394,-11.66600646,-25.85121501,7.768000604
5.519275599,0.884267619,0.000318423,-0.000884816,,,6.672468893,2.769241551,-8.563862043,-16.5389373,7.472311525
5.519275599,0.884267619,0.000318423,-0.000884816,,,6.676197003,0.286105741,-24.96250509,-58.41431264,9.367668296
5.520141155,3.741090983,0.000189701,-0.002499914,,,6.682079907,3.29310468,-7.497252606,-7.893381975,7.472017792
5.526053714,1.177303985,0.000382315,-0.001138103,,,6.687639667,2.972073193,-7.938127448,-13.041055,7.418999731
5.526053714,1.177303985,0.000382315,-0.001138103,,,6.694636777,1.998095897,-12.93911834,-28.55922662,7.831334472
5.532115557,1.467031278,0.000426742,-0.001368506,,,6.695937511,0.864683128,-20.72494519,-47.88608305,8.143524382
5.532115557,1.467031278,0.000426742,-0.001368506,,,6.703479818,1.080677746,-19.22988967,-43.98793059,7.923796552
5.535850789,4.242491845,2.63918E-05,-0.00257146,,,6.706556107,2.284586142,-11.02601007,-23.82351683,7.814754324
5.535850789,4.242491845,2.63918E-05,-0.00257146,,,6.707234756,2.579927537,-9.355995956,-19.10751909,7.655495455
5.540151147,1.759151911,0.000453515,-0.001580011,,,6.707999118,3.175599567,-7.59187604,-9.419637889,7.45846589
5.540151147,1.759151911,0.000453515,-0.001580011,,,6.708715326,1.228303459,-18.22347359,-41.34164721,7.835728402
5.540536166,3.828486296,0.000163066,-0.002507411,,,6.712207152,2.415137892,-10.23183892,-21.6718556,7.766695647
5.540536166,3.828486296,0.000163066,-0.002507411,,,6.713291451,2.706544683,-8.784530578,-16.98748686,7.585094934
5.545127311,2.033089695,0.000462306,-0.00176028,,,6.716624834,1.448003912,-16.73470696,-37.44178527,7.787017535
5.545127311,2.033089695,0.000462306,-0.00176028,,,6.720533743,2.223911832,-11.41015393,-24.60256134,7.864347528
5.545155053,3.152843035,0.000341845,-0.002316716,,,6.720703131,2.666185126,-8.949317111,-17.53641177,7.62464617
5.54670955,4.140059237,6.11807E-05,-0.002553587,,,6.731088631,0.035876639,-26.70615206,-62.33496048,10.26444657
5.54827562,3.336687717,0.000300128,-0.002377585,,,6.733512055,3.121572766,-7.660246297,-9.922690513,7.487024817
5.549052238,3.933056463,0.000129868,-0.00252196,,,6.733718557,2.801642533,-8.414527498,-15.16020582,7.565423614
5.550255637,2.320605383,0.000455053,-0.001930104,,,6.746557123,3.085897249,-7.711357912,-10.31418144,7.503848426
5.550255637,2.320605383,0.000455053,-0.001930104,,,6.750659618,2.398215238,-10.31047236,-21.42488134,7.854929857
5.556386933,4.332784384,-5.9828E-06,-0.002567148,,,6.755128021,2.828918634,-8.312519915,-14.41053516,7.586735632
5.55756831,4.03762663,9.5403E-05,-0.002533626,,,6.757345302,3.217839284,-7.575782453,-7.972703364,7.550920129
5.55756831,4.03762663,9.5403E-05,-0.002533626,,,6.759868522,0.207259787,-25.28825782,-58.96177164,9.62586819
5.569049704,2.930692692,0.00038585,-0.002220584,,,6.76557082,0.429489297,-23.65499324,-54.89700164,8.970762901
5.569049704,2.930692692,0.00038585,-0.002220584,,,6.768510831,1.115002711,-18.95199326,-42.61750843,7.924802384
5.576923077,4.423076923,-3.89441E-05,-0.002560379,,,6.769189439,3.008256918,-7.843419964,-11.25666727,7.543032199
5.576954417,3.601038147,0.000230943,-0.002437909,,,6.772376442,1.189633053,-18.45323158,-41.25524936,7.884086053
5.576954417,3.601038147,0.000230943,-0.002437909,,,6.772893967,2.897185177,-8.101324095,-13.03386121,7.582389962
5.577379332,2.688128665,0.000422982,-0.002110279,,,6.775384914,0.717131994,-21.62763691,-49.61970616,8.373786171
5.577379332,2.688128665,0.000422982,-0.002110279,,,6.777000724,2.565953837,-9.377391407,-18.37631197,7.798991002
5.578411406,3.482226737,0.00026375,-0.002406153,,,6.777185515,2.068591422,-12.45687306,-26.33227031,7.992384038
5.578411406,3.482226737,0.00026375,-0.002406153,,,6.784926796,0.941696332,-20.09529602,-45.49774029,8.074899634
5.586691326,0.146785776,6.78594E-05,-0.000157482,,,6.794139177,0.54166145,-22.800307,-52.56554238,8.706736852
5.593407312,0.440357329,0.000185951,-0.000458216,,,6.796231428,0.602983545,-22.37284469,-51.43756622,8.580008715
5.593407312,0.440357329,0.000185951,-0.000458216,,,6.800589952,1.872199318,-13.84360103,-29.2153508,7.985953693
5.593891118,3.257302584,0.000320434,-0.002330764,,,6.805096789,1.370313775,-17.24911039,-37.68894597,7.851541824
5.593891118,3.257302584,0.000320434,-0.002330764,,,6.811189911,3.159351466,-7.635523584,-8.10637558,7.605801278
5.597349428,3.68843346,0.000205624,-0.002447747,,,6.811521427,1.598718283,-15.73156135,-33.66176932,7.888994005
5.599687118,0.735705362,0.000282305,-0.000740939,,,6.812104667,0.176487188,-25.33440615,-58.97597617,9.728522093
5.599687118,0.735705362,0.000282305,-0.000740939,,,6.813172035,2.727479688,-8.634736376,-15.24046548,7.744106997
5.606465234,1.028741729,0.000357032,-0.001001137,,,6.81545319,2.549031182,-9.433316868,-18.11463282,7.882578864
5.612885213,1.320123559,0.000411769,-0.001239571,,,6.819419506,2.099741392,-12.24525738,-25.26406518,8.075228928
5.614079241,4.275092076,1.157E-05,-0.002526517,,,6.821970513,2.679568458,-8.821218093,-15.89923128,7.793573359
5.614079241,4.275092076,1.157E-05,-0.002526517,,,6.826675841,3.117000707,-7.677776771,-8.572430201,7.61802539
5.614556725,2.445478616,0.000450771,-0.001976417,,,6.829364068,2.297609555,-10.89566949,-21.96019091,8.062991632
5.617744439,3.775828774,0.00017899,-0.002455054,,,6.833524909,3.009504094,-7.828980782,-10.26516593,7.631839609
5.617785769,3.035152241,0.000368897,-0.002241316,,,6.837512649,2.383956032,-10.34704142,-20.46708285,8.037607019
5.618947056,1.609850851,0.000447657,-0.00145649,,,6.838316823,2.865829598,-8.156544966,-12.58918743,7.692925499
5.618947056,1.609850851,0.000447657,-0.00145649,,,6.838587421,2.759859417,-8.49559198,-14.34077154,7.760405309
5.624026904,3.402841604,0.000285532,-0.002361213,,,6.839639861,1.773313597,-14.55179043,-30.33755712,7.99382045
5.624938001,4.172659469,4.71156E-05,-0.002510277,,,6.839707751,0.970611064,-19.85031715,-44.34229673,8.054844893
5.625452933,1.89288006,0.000465469,-0.001648739,,,6.841138577,2.246498609,-11.22860511,-22.61623809,8.104118147
5.625452933,1.89288006,0.000465469,-0.001648739,,,6.841970325,1.715010605,-14.95406704,-31.28648414,7.969436429
5.630581259,2.180395748,0.000466336,-0.001824667,,,6.858723767,1.337738522,-17.45983297,-37.5925642,7.879307227
5.634615385,4.365384615,-2.17214E-05,-0.002519698,,,6.861639776,3.111495395,-7.686758061,-8.115942967,7.65957627
5.635796761,4.070226861,8.21736E-05,-0.002491996,,,6.862977898,3.004866519,-7.830923969,-9.890536083,7.669174881
5.638139449,3.863224087,0.000151092,-0.002459822,,,6.867617815,2.659479407,-8.871032039,-15.57474865,7.882682563
5.638139449,3.863224087,0.000151092,-0.002459822,,,6.867769812,2.861192022,-8.152749365,-12.22657531,7.734755146
5.64168042,2.813001898,0.000408912,-0.002141293,,,6.873551356,2.754354105,-8.489879259,-13.92072418,7.815036352
5.64168042,2.813001898,0.000408912,-0.002141293,,,6.875476128,0.392730547,-23.6251156,-54.37608988,9.054292774
5.64168042,2.813001898,0.000408912,-0.002141293,,,6.887603201,2.500548677,-9.634621219,-17.88597159,8.049946963
5.64168042,2.813001898,0.000408912,-0.002141293,,,6.887694299,0.750834689,-21.22699369,-47.73862679,8.320489962
5.64168042,2.813001898,0.000408912,-0.002141293,,,6.89240617,0.030221834,-26.08023072,-60.80801975,10.27664107
5.64168042,2.813001898,0.000408912,-0.002141293,,,6.892743174,2.144210629,-11.93338966,-23.54483332,8.220419402
5.646655522,3.967794254,0.000116553,-0.002471609,,,6.902669363,2.725236098,-8.574007549,-13.9755278,7.878521756
5.646655522,3.967794254,0.000116553,-0.002471609,,,6.907344167,2.986503505,-7.850662541,-9.510667169,7.72362604
5.65416269,3.548380624,0.000246618,-0.002384852,,,6.908342276,2.687326322,-8.718564344,-14.52148122,7.918817749
5.65416269,3.548380624,0.000246618,-0.002384852,,,6.911048695,2.875431764,-8.089085337,-11.33209462,7.778766182
5.65416269,3.548380624,0.000246618,-0.002384852,,,6.914238998,1.90574057,-13.66322525,-27.1245811,8.172820467
5.65416269,3.548380624,0.000246618,-0.002384852,,,6.918554469,3.058815083,-7.743075049,-8.10400726,7.719794057
5.65416269,3.548380624,0.000246618,-0.002384852,,,6.921220361,0.141761138,-25.18792739,-58.47304221,9.830586019
5.666521835,3.139611791,0.000349327,-0.002257346,,,6.927125366,2.801836468,-8.288583717,-12.32805386,7.847572715
5.666666667,0,0,0,,,6.927712273,0.361957947,-23.69034429,-54.37145191,9.124010094
5.669642402,3.323456472,0.000306671,-0.002315338,,,6.927848266,1.565267156,-16.00444697,-32.72189057,7.96311905
5.673382652,0.293571553,0.000131555,-0.000307278,,,6.932325433,1.113215954,-18.86758256,-40.67972229,7.958252951
5.674557701,3.635775938,0.00022139,-0.002394501,,,6.935581754,1.17608321,-18.47222343,-39.51310354,7.929957008
5.674557701,3.635775938,0.00022139,-0.002394501,,,6.942475254,0.779749422,-20.96204432,-46.5826231,8.272127261
5.678857813,2.570351849,0.000442848,-0.002015973,,,6.945254938,2.567361485,-9.229977206,-15.96747041,8.085268579
5.680098638,0.587143106,0.000239655,-0.000595049,,,6.951653851,2.777307984,-8.348023176,-12.36979042,7.895452196
5.680098638,0.587143106,0.000239655,-0.000595049,,,6.952897774,1.000313061,-19.56163216,-42.46518927,8.032554239
5.680098638,0.587143106,0.000239655,-0.000595049,,,6.956452133,0.533444149,-22.50688893,-50.91549642,8.697883487
5.680098638,0.587143106,0.000239655,-0.000595049,,,6.95647299,1.93689054,-13.46081807,-26.021951,8.255897659
5.680098638,0.587143106,0.000239655,-0.000595049,,,6.958935865,0.606240215,-22.03747477,-49.55600989,8.551113126
5.680098638,0.587143106,0.000239655,-0.000595049,,,6.964756974,2.401925181,-10.15192124,-18.38898738,8.264914105
5.686876753,0.880179473,0.000325729,-0.000862122,,,6.965530267,2.928317405,-7.936089154,-9.586913667,7.803810222
5.690416486,2.917461447,0.000393981,-0.002164056,,,6.968172153,1.295203624,-17.72469046,-36.97537698,7.909212545
5.690416486,2.917461447,0.000393981,-0.002164056,,,6.97956049,2.590819224,-9.079518927,-15.07713044,8.111505599
5.692307692,4.307692308,-4.39276E-06,-0.002478115,,,6.981475244,1.532691902,-16.23847803,-32.58536817,7.973397695
5.692307692,4.307692308,-4.39276E-06,-0.002478115,,,6.993819864,2.983549687,-7.825574615,-8.18455129,7.801289077
5.692307692,4.307692308,-4.39276E-06,-0.002478115,,,6.993958268,2.320853168,-10.66499454,-19.28240259,8.373893853
5.693654869,1.173215839,0.000391289,-0.001108638,,,6.997598848,2.870245569,-8.045371587,-10.07665788,7.866849331
5.693654869,1.173215839,0.000391289,-0.001108638,,,6.998696349,2.018314049,-12.88950195,-24.09321353,8.374765896
5.694952711,3.723171251,0.000194777,-0.002401569,,,7.005732776,2.269742222,-11.01610491,-19.93735881,8.418029087
5.694952711,3.723171251,0.000194777,-0.002401569,,,7.010594178,0.285144694,-23.94613604,-54.88686876,9.314021894
5.699716712,1.462943132,0.0004369,-0.001332107,,,7.011009405,2.71795243,-8.499809075,-12.47080682,8.014853352
5.699778188,3.468995492,0.000269182,-0.00234081,,,7.011080351,1.782124155,-14.61423318,-27.85291135,8.192529852
5.699778188,3.468995492,0.000269182,-0.00234081,,,7.013846868,1.712912096,-15.09052844,-29.00264771,8.127319524
5.703166453,4.2052597,3.19183E-05,-0.002463646,,,7.015788164,2.686017917,-8.618514244,-12.93991449,8.054357757
5.703166453,4.2052597,3.19183E-05,-0.002463646,,,7.018462177,0.496913692,-22.60155764,-50.89194885,8.754909502
5.705778554,1.752670425,0.000464152,-0.001535309,,,7.019987499,2.162179778,-11.80889807,-21.46298205,8.466188508
5.705778554,1.752670425,0.000464152,-0.001535309,,,7.022127333,2.845717084,-8.087883065,-10.11132223,7.904889453
5.705778554,1.752670425,0.000464152,-0.001535309,,,7.023966879,0.64056518,-21.70472314,-48.18664123,8.467489566
5.705778554,1.752670425,0.000464152,-0.001535309,,,7.026104116,2.760376343,-8.335052569,-11.51544895,7.985808807
5.705778554,1.752670425,0.000464152,-0.001535309,,,7.032345177,0.852761926,-20.39596274,-44.20074885,8.160144348
5.705778554,1.752670425,0.000464152,-0.001535309,,,7.045055566,2.439789152,-9.844348165,-16.61119915,8.368208498
5.71090688,2.040186113,0.000473436,-0.001717188,,,7.048519777,2.610581567,-8.908396578,-13.71910457,8.176419842
5.714025213,4.102827093,6.78225E-05,-0.002447164,,,7.048731997,2.924403174,-7.896328803,-8.319494758,7.865985732
5.714025213,4.102827093,6.78225E-05,-0.002447164,,,7.061216741,1.819102593,-14.41230552,-26.52479018,8.280290361
5.7152579,3.24407134,0.000327096,-0.002268575,,,7.063068746,1.445917995,-16.82160793,-33.05315009,7.945872583
5.7152579,3.24407134,0.000327096,-0.002268575,,,7.077507984,1.67424169,-15.41458781,-28.80169704,8.125287632
5.715347722,3.810566565,0.000166828,-0.002406044,,,7.077850003,2.895285168,-7.931766791,-8.353340597,7.900601745
5.715347722,3.810566565,0.000166828,-0.002406044,,,7.079361118,2.463246892,-9.662941897,-15.72211077,8.395473917
5.716035206,2.327701801,0.000465353,-0.001879152,,,7.080585687,2.813261985,-8.121349841,-9.743326096,7.972908276
5.716035206,2.327701801,0.000465353,-0.001879152,,,7.082944851,0.531945912,-22.24972758,-49.51889967,8.648893497
5.724883973,4.000394485,0.000103112,-0.002428604,,,7.08596582,0.602801334,-21.82203443,-48.17328237,8.50861749
5.724883973,4.000394485,0.000103112,-0.002428604,,,7.086274738,1.955220843,-13.43756401,-23.87793828,8.464265719
5.735742733,3.897961878,0.000137601,-0.002407911,,,7.089313538,0.141761138,-24.5697925,-56.70659773,9.750418998
5.735742733,3.897961878,0.000137601,-0.002407911,,,7.099183874,0.361957947,-23.22217964,-52.49494511,9.044545148
5.735742733,3.897961878,0.000137601,-0.002407911,,,7.109839535,0.030221834,-25.16256756,-58.57419822,10.17783441
5.735742733,3.897961878,0.000137601,-0.002407911,,,7.113815454,2.141315307,-11.98395165,-20.44267049,8.638483075
5.735742733,3.897961878,0.000137601,-0.002407911,,,7.115698901,2.342364341,-10.42946064,-17.17093693,8.578029383
5.735742733,3.897961878,0.000137601,-0.002407911,,,7.116137115,0.771837617,-20.77694427,-44.69880065,8.228378824
5.735742733,3.897961878,0.000137601,-0.002407911,,,7.117183565,1.807246432,-14.56703365,-25.93384377,8.312839644
5.739152551,3.021920997,0.000376379,-0.002182085,,,7.123138056,0.992557139,-19.48033418,-40.54954046,8.001605356
5.739152551,3.021920997,0.000376379,-0.002182085,,,7.12567355,2.511958071,-9.317295128,-14.21809279,8.394789312
5.741144165,3.553855192,0.00024552,-0.002339495,,,7.129676537,2.281690031,-10.87245925,-17.94930566,8.646601184
5.741144165,3.553855192,0.00024552,-0.002339495,,,7.133420183,1.945233426,-13.57024938,-23.35669356,8.513407438
5.743158901,2.695225082,0.000431157,-0.002048618,,,7.137059457,2.840310095,-7.997703036,-8.34984061,7.969882523
5.743158901,2.695225082,0.000431157,-0.002048618,,,7.138412435,1.287447702,-17.77195293,-34.9571213,7.894378664
5.745393685,3.38961036,0.000291139,-0.002295879,,,7.138771787,2.755075885,-8.226755639,-9.826978062,8.066095583
5.745393685,3.38961036,0.000291139,-0.002295879,,,7.142687361,1.703154137,-15.3025478,-27.38523786,8.186425392
5.75,4.25,1.30289E-05,-0.002435718,,,7.152536141,1.103183445,-18.82476991,-38.15605687,7.926140937
5.753357993,0.146785776,6.97262E-05,-0.000154519,,,7.153291089,1.762450678,-14.91877315,-26.17991017,8.275024018
5.760073978,0.440357329,0.000190783,-0.00044897,,,7.153502917,0.391468458,-22.90714731,-51.34227737,8.930368764
5.760073978,0.440357329,0.000190783,-0.00044897,,,7.155137104,1.524780097,-16.4061748,-30.40859787,7.990933721
5.76085876,4.147567393,4.95834E-05,-0.002420921,,,7.155792462,1.166050701,-18.46231328,-36.95944586,7.903363224
5.761539176,3.641250505,0.000219469,-0.002347244,,,7.156423362,2.370211255,-10.19001552,-16.1177439,8.617919786
5.762075539,2.831402757,0.000411775,-0.002098502,,,7.156748283,2.711096134,-8.349961413,-10.31135279,8.131417634
5.762075539,2.831402757,0.000411775,-0.002098502,,,7.160960899,2.13132789,-12.0766843,-19.90970051,8.725789814
5.767288273,0.731617216,0.000288133,-0.000721153,,,7.161187448,2.605281109,-8.77853071,-12.08568108,8.28981325
5.767288273,0.731617216,0.000288133,-0.000721153,,,7.161527042,2.679161621,-8.46078192,-10.79462525,8.179107822
5.771717521,4.045134785,8.56126E-05,-0.002404071,,,7.168363906,0.740026033,-20.89003609,-44.67208762,8.244063292
5.774066388,1.024653583,0.000364692,-0.000974501,,,7.185643362,2.26983387,-10.93473365,-17.32073366,8.758482918
5.780336294,2.452575034,0.000459978,-0.001920413,,,7.194293242,2.457839902,-9.541551978,-14.09342751,8.553506981
5.780486367,1.316035413,0.00042076,-0.001205818,,,7.199173445,2.354326,-10.25607049,-15.74139653,8.70268628
5.781934187,3.728645819,0.000191992,-0.002352354,,,7.201009633,0.176487188,-23.96836397,-54.86541166,9.540218006
5.782576281,3.942702178,0.000120916,-0.00238511,,,7.210043037,1.549135421,-16.32448834,-29.22602638,8.002988765
5.782576281,3.942702178,0.000120916,-0.00238511,,,7.212324853,2.765044699,-8.100683347,-8.447005126,8.069918568
5.78654821,1.605762705,0.000457562,-0.001415432,,,7.214415809,2.314622925,-10.54730864,-16.16626483,8.769181385
5.78654821,1.605762705,0.000457562,-0.001415432,,,7.219840832,1.971466212,-13.48073082,-21.64652114,8.676190513
5.786759663,3.47447006,0.000268354,-0.002295653,,,7.230305143,2.444458449,-9.573456932,-13.77684352,8.616428281
5.787888616,3.126380546,0.000356049,-0.002195279,,,7.231789403,1.878566776,-14.22745355,-23.02946066,8.522497102
5.787888616,3.126380546,0.000356049,-0.002195279,,,7.233580319,0.952666751,-19.62281688,-39.94083508,7.978800094
5.791009183,3.310225228,0.000312414,-0.002250103,,,7.240231492,2.578555939,-8.775060797,-11.31265571,8.382729573
5.791009183,3.310225228,0.000312414,-0.002250103,,,7.241131982,2.115331941,-12.26506154,-18.98038647,8.870133593
5.791232502,1.899976477,0.000476126,-0.001607886,,,7.24492052,0.534291202,-21.90723089,-47.62869568,8.535000316
5.791232502,1.899976477,0.000476126,-0.001607886,,,7.24746533,0.593978533,-21.57915567,-46.47631061,8.420651203
5.796360827,2.187492165,0.00047639,-0.001775669,,,7.252596336,1.319794209,-17.60700213,-32.8935993,7.851826337
5.802329198,3.816041132,0.00016314,-0.002354806,,,7.255328676,0.205997699,-23.62465492,-53.72183109,9.388391095
5.802329198,3.816041132,0.00016314,-0.002354806,,,7.26220573,1.84083164,-14.5747316,-23.24136541,8.473766282
5.807692308,4.192307692,3.05263E-05,-0.002392586,,,7.264942224,2.708192947,-8.19443326,-8.597871508,8.153958691
5.810811604,2.935862307,0.000395547,-0.002117507,,,7.265387755,0.423569236,-22.45366804,-49.4856053,8.759212997
5.818551068,4.089875085,6.72793E-05,-0.002377492,,,7.270615137,2.67028317,-8.317568547,-9.189533744,8.218911657
5.82812564,3.559329759,0.000243736,-0.002291952,,,7.271577268,0.035876639,-24.44514324,-56.78648212,10.01343931
5.82812564,3.559329759,0.000243736,-0.002291952,,,7.276243393,2.565174487,-8.771110185,-10.97649584,8.422283353
5.829409828,3.987442477,0.000103387,-0.002360306,,,7.27732466,0.703543772,-20.93955617,-44.0690594,8.221686725
5.829409828,3.987442477,0.000103387,-0.002360306,,,7.281049189,2.211418458,-11.38404317,-16.84802123,8.966993601
5.832375161,3.395084927,0.00029057,-0.002250988,,,7.285807111,0.920855167,-19.75621756,-39.89664143,7.971385584
5.833333333,0,0,0,,,7.289660697,2.385102895,-9.894702309,-13.8757952,8.787226241
5.836624681,3.230840096,0.000332936,-0.002203525,,,7.294594071,2.449189879,-9.422210363,-12.71329771,8.669023271
5.836624681,3.230840096,0.000332936,-0.002203525,,,7.302110768,1.674920286,-15.71616604,-25.63137806,8.139069964
5.836624681,3.230840096,0.000332936,-0.002203525,,,7.30250059,2.351657739,-10.13721102,-14.2399415,8.859227745
5.836624681,3.230840096,0.000332936,-0.002203525,,,7.305286581,2.249147951,-11.02384501,-15.87677857,8.991337453
5.836624681,3.230840096,0.000332936,-0.002203525,,,7.307502269,1.344149533,-17.48164298,-31.72192116,7.824210802
5.836624681,3.230840096,0.000332936,-0.002203525,,,7.311043158,1.724870624,-15.45143694,-24.60068137,8.225545895
5.840049319,0.293571553,0.000134832,-0.000301078,,,7.31336522,2.654397916,-8.297830259,-8.770885749,8.24285803
5.840049319,0.293571553,0.000134832,-0.000301078,,,7.315903296,1.090064235,-18.82732136,-36.36444113,7.843830794
5.840268588,3.88500987,0.000138659,-0.002340979,,,7.319768907,1.164694577,-18.42880982,-34.91966165,7.816691427
5.840268588,3.88500987,0.000138659,-0.002340979,,,7.320615242,1.560161174,-16.37252927,-27.51542738,7.960168961
5.844637382,2.577448267,0.000450791,-0.001954685,,,7.330107968,2.542512916,-8.774503271,-10.52067291,8.483495238
5.844637382,2.577448267,0.000450791,-0.001954685,,,7.336059942,0.070908858,-24.00485851,-55.440393,9.795974018
5.847682897,0.585114928,0.000244643,-0.000580204,,,7.337563078,2.049978793,-12.96972776,-18.58047534,8.979519043
5.847682897,0.585114928,0.000244643,-0.000580204,,,7.344107115,0.280185681,-22.97089088,-51.33936193,9.059351442
5.848520651,3.646725072,0.000216815,-0.0022977,,,7.354821978,2.292309151,-10.56873381,-14.43569491,9.028543618
5.854477908,0.876091326,0.000332017,-0.00083849,,,7.362514276,1.794462533,-15.14084587,-22.56442906,8.379795312
5.854477908,0.876091326,0.000332017,-0.00083849,,,7.36811754,0.843338984,-20.09191714,-40.35177335,7.978820948
5.859547669,3.040321856,0.000376533,-0.002131635,,,7.371826621,2.601017625,-8.390474341,-8.777899842,8.338741533
5.861256023,1.169127693,0.000399039,-0.001077748,,,7.377902237,1.052300389,-18.99528272,-36.29850666,7.816416957
5.861256023,1.169127693,0.000399039,-0.001077748,,,7.38406652,1.980125062,-13.73782761,-19.00626026,8.919231553
5.86355402,2.713625942,0.000434175,-0.002006167,,,7.384948284,1.193607023,-18.2680195,-33.55518645,7.760142905
5.865384615,4.134615385,4.80803E-05,-0.002348795,,,7.388294068,2.484326817,-8.97185474,-10.63493606,8.63283598
5.867317866,1.458854986,0.000445688,-0.001293749,,,7.395958931,1.401690881,-17.23280041,-29.49037316,7.769131427
5.867317866,1.458854986,0.000445688,-0.001293749,,,7.397816007,0.035032219,-23.9160748,-55.48604312,9.864756285
5.868915662,3.734120386,0.000188422,-0.002300743,,,7.40578559,2.126882279,-12.25422933,-16.31001086,9.215899932
5.868915662,3.734120386,0.000188422,-0.002300743,,,7.410864342,2.430553537,-9.278712202,-11.23881669,8.783333646
5.872371266,1.74851589,0.000473554,-0.001489495,,,7.414482847,1.942389925,-14.14824071,-19.17231431,8.840293694
5.872371266,1.74851589,0.000473554,-0.001489495,,,7.423704235,2.397108381,-9.504791744,-11.62793522,8.884865946
5.873741138,3.479944627,0.00026684,-0.002248377,,,7.427047782,0.202555089,-23.0715108,-51.92995505,9.196916126
5.876243376,4.032182777,8.49823E-05,-0.002333432,,,7.430022982,2.164611772,-11.84942241,-15.35739078,9.29262694
5.876243376,4.032182777,8.49823E-05,-0.002333432,,,7.43372356,0.420194455,-22.07504748,-47.64926849,8.582967262
5.876686449,2.04728253,0.000483085,-0.001670424,,,7.442817703,1.085632083,-18.79368115,-34.85550682,7.74768835
5.876686449,2.04728253,0.000483085,-0.001670424,,,7.445660465,0.70016899,-20.72522016,-42.13794856,8.067622595
5.877990659,3.315699795,0.000312091,-0.002205539,,,7.445998139,1.152308375,-18.45995892,-33.56246666,7.720701657
5.877990659,3.315699795,0.000312091,-0.002205539,,,7.447092017,2.525752229,-8.557202435,-8.927350862,8.497300786
5.881814775,2.334798218,0.00047411,-0.001823903,,,7.448521975,2.327446089,-10.04619913,-12.45131571,9.086395829
5.881814775,2.334798218,0.00047411,-0.001823903,,,7.451253074,2.226956003,-11.10871235,-14.06231846,9.30082701
5.882470657,2.849803617,0.000413507,-0.002052203,,,7.457526217,0.917412557,-19.63647179,-37.85740508,7.831429118
5.882470657,2.849803617,0.000413507,-0.002052203,,,7.462667732,0.529925824,-21.50872219,-45.20448042,8.317770452
5.887102136,3.92975017,0.00012112,-0.00231594,,,7.465212542,0.589613156,-21.22607328,-44.0268847,8.209297033
5.906855053,3.803089124,0.000164251,-0.002287247,,,7.476427987,1.308279085,-17.69327115,-30.2208328,7.675217803
5.908283735,3.144781406,0.000354665,-0.002140772,,,7.479069979,0.172333254,-23.02345916,-51.95612601,9.223242176
5.908283735,3.144781406,0.000354665,-0.002140772,,,7.480236523,1.872975114,-15.00269564,-19.37334208,8.626220427
5.915107115,3.564804326,0.000241205,-0.002242189,,,7.486212695,1.524997465,-16.72693261,-25.94403136,7.756197966
5.915107115,3.564804326,0.000241205,-0.002242189,,,7.495708965,2.059696644,-13.18124103,-15.99184237,9.334814942
5.919356636,3.400559495,0.000289314,-0.002204043,,,7.500457441,2.467305695,-8.736154925,-9.145950648,8.647273103
5.919356636,3.400559495,0.000289314,-0.002204043,,,7.512209836,0.945490576,-19.45762088,-36.64563872,7.755345152
5.920024659,0.146785776,7.13916E-05,-0.000151414,,,7.515699805,2.427602619,-8.958436178,-9.64354443,8.78316511
5.920024659,0.146785776,7.13916E-05,-0.000151414,,,7.516315844,1.629435015,-16.34136917,-23.51861526,7.839042417
5.923076923,4.076923077,6.56685E-05,-0.002304417,,,7.522073455,2.330441731,-9.800229519,-11.29714879,9.142818918
5.923076923,4.076923077,6.56685E-05,-0.002304417,,,7.524481412,2.104485699,-12.65045553,-14.89324866,9.503745447
5.927658238,0.438329152,0.000194297,-0.000437265,,,7.525248233,1.679385354,-16.13841273,-22.41604959,7.935922426
5.931206723,2.954263166,0.000395888,-0.002067272,,,7.525606211,2.200454911,-11.33083701,-13.40023291,9.493303886
5.933935683,3.974490469,0.000102667,-0.00228881,,,7.527855285,1.273489848,-17.85929559,-30.20915096,7.621925737
5.934872532,0.729589039,0.000293632,-0.000702476,,,7.528111729,1.759298824,-15.82356519,-20.79895645,8.126158933
5.935502126,3.65219964,0.000213361,-0.002245831,,,7.531816488,2.01490089,-13.84330141,-16.07328598,9.259924156
5.935502126,3.65219964,0.000213361,-0.002245831,,,7.542969235,0.383660471,-21.97788384,-47.12768726,8.51511475
5.939332042,3.243883285,0.000331096,-0.00215296,,,7.553703902,2.421835386,-8.850011925,-9.143459759,8.773024894
5.939332042,3.243883285,0.000331096,-0.00215296,,,7.554087422,2.325583518,-9.738521458,-10.91203088,9.171413431
5.941667542,1.020565437,0.000371148,-0.000946709,,,7.557620178,2.195596697,-11.33608261,-13.01423341,9.588254261
5.941667542,1.020565437,0.000371148,-0.000946709,,,7.557830224,0.732218046,-20.43418485,-40.18271779,7.891926949
5.944794444,3.872057862,0.000138782,-0.00227104,,,7.559123977,0.029510511,-23.25747661,-53.91754508,9.635636963
5.944794444,3.872057862,0.000138782,-0.00227104,,,7.56248551,2.098718465,-12.80399611,-14.42563751,9.594530197
5.946115863,2.459671451,0.000467534,-0.001859804,,,7.583408565,1.906519477,-15.22888949,-17.20326933,8.764576656
5.946115863,2.459671451,0.000467534,-0.001859804,,,7.588126911,0.138424543,-22.77126449,-51.45845471,9.161616704
5.948087522,1.311947267,0.000428354,-0.001170396,,,7.589706943,2.030571938,-14.13246132,-15.09550913,9.422407067
5.948087522,1.311947267,0.000428354,-0.001170396,,,7.591603516,2.069600459,-13.25771105,-14.26935196,9.750682591
5.953140922,1.601608171,0.000465891,-0.00137235,,,7.59317383,1.467779703,-17.00958095,-25.64161221,7.575610023
5.957825213,1.895821943,0.000484926,-0.0015567,,,7.594991432,0.353438636,-21.97194966,-47.1405185,8.505188902
5.960722613,3.485419194,0.00026458,-0.002198952,,,7.598689445,2.304657734,-9.764962739,-10.61628206,9.274231142
5.960722613,3.485419194,0.00026458,-0.002198952,,,7.601420545,2.204167648,-11.12552169,-12.25776744,9.645952397
5.962140396,2.194588583,0.000484827,-0.001722653,,,7.605144385,1.084823063,-18.73936364,-32.81559199,7.582158783
5.962140396,2.194588583,0.000484827,-0.001722653,,,7.607823527,1.140989971,-18.46607017,-31.69924239,7.563412752
5.9650325,2.595849126,0.000453875,-0.001912792,,,7.610656986,2.368737751,-9.046306564,-9.242593976,8.961962757
5.973441517,3.721168378,0.00018957,-0.002232709,,,7.612513844,0.760296065,-20.24750073,-38.98204349,7.785918364
5.979942788,3.058722716,0.000375355,-0.002077311,,,7.616975732,2.136241143,-12.25479558,-13.06688875,9.802881495
5.979942788,3.058722716,0.000375355,-0.002077311,,,7.624213639,0.521094602,-21.25221408,-43.51505106,8.101199603
5.980698019,3.328742985,0.000309041,-0.002151966,,,7.624621232,0.975044157,-19.25022677,-34.67776834,7.605245299
5.980769231,4.019230769,8.32659E-05,-0.002259521,,,7.627234608,0.591950024,-20.95667238,-42.09060422,7.978949357
5.983949138,2.732026801,0.000436036,-0.001960315,,,7.632174441,1.919720486,-15.21352135,-16.04341581,8.857876773
5.991627991,3.916798162,0.000120307,-0.002243694,,,7.637188245,1.238505491,-18.00340605,-29.46192812,7.509872523
6,0,0,0,,,7.641504217,2.111712659,-12.3217161,-12.85754304,9.863743113
6,0,0,0,,,7.644601129,1.432990466,-17.1737701,-25.6316311,7.498106384
6,0,0,0,,,7.645336523,1.759475921,-16.24137212,-19.14448377,7.909882355
6.00208859,3.570278894,0.000237864,-0.002190176,,,7.656875545,2.246471634,-10.25466123,-10.79280152,9.600708683
6.00208859,3.570278894,0.000237864,-0.002190176,,,7.675151223,1.590088361,-16.67209172,-22.17172816,7.510025665
6.00208859,3.570278894,0.000237864,-0.002190176,,,7.677743356,0.278433317,-22.02021643,-47.71569024,8.552339754
6.00208859,3.570278894,0.000237864,-0.002190176,,,7.685754951,1.649384903,-16.55541833,-20.85955594,7.560355514
6.00208859,3.570278894,0.000237864,-0.002190176,,,7.685922381,2.293472356,-9.450598523,-9.587273919,9.313213973
6.00208859,3.570278894,0.000237864,-0.002190176,,,7.685969704,0.485217963,-21.27791905,-43.51558334,8.060531543
6.002865776,2.868204477,0.000414,-0.002002305,,,7.688708372,2.190962568,-10.99644286,-11.26384571,9.956150595
6.002865776,2.868204477,0.000414,-0.002002305,,,7.692150074,0.625281718,-20.72524276,-40.67646085,7.823451436
6.007633578,0.291543376,0.00013684,-0.000292574,,,7.6941024,1.772676931,-16.16912039,-18.22314767,7.758399909
6.010991095,3.157824595,0.000352982,-0.002090311,,,7.699262131,2.019480182,-14.55289474,-13.46139077,9.943640422
6.011380908,3.790137116,0.000164413,-0.002216838,,,7.700859771,2.052357105,-14.08225755,-13.22538177,9.920584719
6.015267157,0.583086751,0.000248807,-0.000564782,,,7.702164158,0.831874163,-19.84943075,-36.49713956,7.587357092
6.015267157,0.583086751,0.000248807,-0.000564782,,,7.70898194,1.934896904,-16.3442297,-14.72358591,8.918337003
6.022062167,0.874063149,0.000337704,-0.000815667,,,7.713236856,2.166434083,-11.22052151,-11.44465882,10.11534443
6.022063997,3.413602684,0.000284968,-0.002147345,,,7.716475966,2.089112227,-13.63719462,-12.59084303,10.43747164
6.028857177,1.165039547,0.000405395,-0.001045472,,,7.727442009,1.361812075,-17.46060411,-25.90875788,7.403873004
6.028857177,1.165039547,0.000405395,-0.001045472,,,7.736201079,1.548789714,-16.77174995,-22.188886,7.39652149
6.028857177,1.165039547,0.000405395,-0.001045472,,,7.740796123,2.234743165,-9.848362912,-9.983473865,9.731327873
6.028857177,1.165039547,0.000405395,-0.001045472,,,7.743645405,1.665055951,-16.52713246,-19.8963571,7.490594354
6.028857177,1.165039547,0.000405395,-0.001045472,,,7.749922272,0.519526034,-21.03897665,-42.10736564,7.87966813
6.028857177,1.165039547,0.000405395,-0.001045472,,,7.753081673,0.588734367,-20.78209025,-40.69151016,7.764641166
6.033910577,1.454700452,0.000452858,-0.001253654,,,7.756220087,0.138424543,-22.18148326,-49.69098517,8.824294869
6.038461538,3.961538462,0.000100846,-0.002214172,,,7.756857146,1.821220613,-17.22818383,-16.45647163,7.822186611
6.038963978,1.744361356,0.000481308,-0.001441207,,,7.766463033,0.353438636,-21.55605248,-45.24659937,8.181791048
6.038963978,1.744361356,0.000481308,-0.001441207,,,7.76991413,2.205625158,-10.1326684,-10.20572939,9.917045158
6.040027981,3.639247632,0.000214527,-0.002177467,,,7.771930966,2.131416214,-12.44506529,-11.39189567,10.64766364
6.040027981,3.639247632,0.000214527,-0.002177467,,,7.776557342,0.029510511,-22.35182158,-51.69130543,9.187525743
6.042039403,3.256926475,0.000328169,-0.002099413,,,7.784549817,0.753581052,-20.10854879,-37.04208505,7.510713964
6.042039403,3.256926475,0.000328169,-0.002099413,,,7.793267661,0.968461447,-19.19992553,-32.67578742,7.356970796
6.043279161,2.043127996,0.000491099,-0.001613533,,,7.79554774,1.638243577,-16.73976243,-19.71936643,7.376785325
6.047594344,2.341894636,0.000481117,-0.001764288,,,7.798707141,1.581273881,-16.74819997,-20.8344552,7.337348631
6.047594344,2.341894636,0.000481117,-0.001764288,,,7.805834674,1.231922781,-18.02838288,-27.33113613,7.295143239
6.047594344,2.341894636,0.000481117,-0.001764288,,,7.810027517,1.75647561,-16.62189336,-17.26749051,7.375647377
6.047594344,2.341894636,0.000481117,-0.001764288,,,7.816637102,1.426275453,-17.21238364,-23.45035303,7.301232397
6.047594344,2.341894636,0.000481117,-0.001764288,,,7.820335525,0.382339138,-21.34783692,-44.07571096,8.000102602
6.047594344,2.341894636,0.000481117,-0.001764288,,,7.822623039,1.91901479,-17.11825351,-13.47986389,8.483753525
6.047594344,2.341894636,0.000481117,-0.001764288,,,7.823293399,1.076308138,-18.71855276,-30.1564881,7.273347604
6.049320299,3.859105854,0.000137873,-0.002198147,,,7.82597254,1.132475046,-18.4758511,-29.02045089,7.265094049
6.049320299,3.859105854,0.000137873,-0.002198147,,,7.829161974,2.150232763,-10.79317749,-10.59496862,10.4757457
6.051601841,2.972664026,0.000394886,-0.002013259,,,7.830117065,2.073230114,-13.68632631,-11.28247787,10.92860705
6.051601841,2.972664026,0.000394886,-0.002013259,,,7.835877499,0.722794222,-20.17756871,-37.04376559,7.438542351
6.063429974,3.498462384,0.000258844,-0.002139003,,,7.846260167,1.998936211,-17.28018263,-11.75482179,10.22726773
6.063429974,3.498462384,0.000258844,-0.002139003,,,7.847857806,2.031813133,-16.21527233,-11.0479761,10.94510277
6.066510981,2.478072311,0.000470588,-0.00181869,,,7.85374911,1.733889349,-16.43326428,-16.757962,7.200022905
6.066510981,2.478072311,0.000470588,-0.00181869,,,7.867974945,0.172333254,-21.7363903,-47.84253022,8.449015689
6.077967372,3.70821637,0.000189758,-0.00216198,,,7.869291083,1.453639531,-17.13651392,-22.11547556,7.270588608
6.077967372,3.70821637,0.000189758,-0.00216198,,,7.895097594,1.882975195,-18.00127785,-13.57778151,7.626406474
6.082650149,3.071765905,0.000373806,-0.002027071,,,7.902394822,0.930260639,-19.31974114,-32.06041501,7.156174746
6.08340538,3.341786174,0.00030482,-0.002095283,,,7.90442737,2.074967367,-13.33895102,-12.10617622,12.55379493
6.085427619,2.614249986,0.000455777,-0.001867614,,,7.909591947,0.522209604,-20.76636763,-40.2527529,7.53117779
6.085427619,2.614249986,0.000455777,-0.001867614,,,7.912253369,0.580509457,-20.58504535,-39.03766205,7.437563648
6.087608919,0.144757599,7.18716E-05,-0.000146138,,,7.918040271,1.258259911,-17.92487869,-25.24401718,7.111734346
6.087608919,0.144757599,7.18716E-05,-0.000146138,,,7.921847438,0.201233756,-21.51511626,-46.69398556,8.223061514
6.095242497,0.436300975,0.000197121,-0.000425184,,,7.930442306,0.413996496,-21.02915949,-42.23570913,7.675400064
6.096153846,3.903846154,0.000118381,-0.002168435,,,7.938304644,0.035032219,-21.69386592,-49.96807632,8.750325898
6.097720289,3.581555324,0.000231465,-0.002131183,,,7.938819186,1.860388934,-18.16070195,-14.21243651,7.77910517
6.097720289,3.581555324,0.000231465,-0.002131183,,,7.942926203,0.687462807,-20.19784369,-36.50571871,7.23533031
6.102456792,0.727560861,0.000298086,-0.000683035,,,7.949424455,1.640779386,-16.75540311,-17.3558778,7.198810335
6.104344257,2.750427661,0.000436638,-0.001910989,,,7.952085878,1.59278914,-16.6998253,-18.03184467,7.256330692
6.104344257,2.750427661,0.000436638,-0.001910989,,,7.953722505,0.899473809,-19.42007319,-32.05291847,7.052169697
6.109251802,1.01853726,0.000376725,-0.000919417,,,7.955109777,1.979504417,-24.93564868,-11.76143871,10.06049903
6.109251802,1.01853726,0.000376725,-0.000919417,,,7.957006351,2.018532938,-22.62697176,-14.47566325,16.8355005
6.113698456,3.170867785,0.000350206,-0.002036957,,,7.961941411,1.715275552,-16.8092768,-15.7789797,7.520178539
6.114680233,1.307792732,0.000434318,-0.001133521,,,7.970694253,1.285623988,-17.85240405,-23.9269916,7.002230552
6.114680233,1.307792732,0.000434318,-0.001133521,,,7.974425308,1.490168372,-16.9998371,-19.72647756,7.104200224
6.115906763,3.777185108,0.000163537,-0.00214364,,,7.985085275,1.064465966,-18.75338276,-28.27850017,6.931270208
6.115906763,3.777185108,0.000163537,-0.00214364,,,7.98826571,1.131142258,-18.48418482,-26.86396103,6.918892135
6.119733633,1.597453636,0.000472507,-0.001327117,,,8.002257213,0.069340291,-21.42142387,-48.62890737,8.437688385
6.123260894,2.886605336,0.000413141,-0.00194873,,,8.007012112,1.952692043,-22.54702279,-10.61618258,9.048769707
6.123260894,2.886605336,0.000413141,-0.00194873,,,8.008919037,0.273987722,-21.14839994,-44.2987437,7.787763875
6.123260894,2.886605336,0.000413141,-0.00194873,,,8.027707304,1.813069729,-17.48110709,-12.05850415,7.333969914
6.123260894,2.886605336,0.000413141,-0.00194873,,,8.034029706,0.824050091,-19.65241101,-32.63552629,6.885499726
6.123260894,2.886605336,0.000413141,-0.00194873,,,8.045046461,1.97716156,-29.58572526,-3.009187573,6.174529258
6.123260894,2.886605336,0.000413141,-0.00194873,,,8.046016874,1.027918615,-18.89157876,-28.24449727,6.769208222
6.124417925,1.891667408,0.000491941,-0.001502749,,,8.050771773,1.163626425,-18.34975943,-25.33810386,6.734460646
6.124771357,3.426645874,0.000279354,-0.002087401,,,8.052817973,1.360279078,-17.55541598,-21.16013655,6.79007995
6.124771357,3.426645874,0.000279354,-0.002087401,,,8.063952569,0.034308071,-21.21008463,-48.77440224,8.382073367
6.128733108,2.190434048,0.000491866,-0.001659717,,,8.091157857,0.198281478,-21.02472405,-45.05948227,7.755803909
6.128733108,2.190434048,0.000491866,-0.001659717,,,8.096416881,0.411102386,-20.70969368,-40.5450542,7.233120337
6.13565968,3.650524062,0.000206892,-0.002115708,,,8.101582222,1.867038666,-18.54552846,-7.050334945,6.513793033
6.144746764,3.269969664,0.000324066,-0.002042836,,,8.108900778,0.684568697,-20.03277497,-34.69178456,6.792304595
6.144746764,3.269969664,0.000324066,-0.002042836,,,8.114370187,1.062890024,-18.74661284,-26.63935803,6.548679043
6.146521811,2.416572819,0.000478899,-0.001758024,,,8.11594465,1.131921542,-18.46603099,-25.13764447,6.532968533
6.146521811,2.416572819,0.000478899,-0.001758024,,,8.121497603,1.721794268,-16.90198721,-11.68078177,6.836204321
6.153846154,3.846153846,0.000135841,-0.002122368,,,8.123032924,0.896521531,-19.3481424,-30.06739218,6.581573534
6.153846154,3.846153846,0.000135841,-0.002122368,,,8.124284841,0.518465989,-20.44008541,-38.00885462,6.962945266
6.153846154,3.846153846,0.000135841,-0.002122368,,,8.125920753,1.980761309,-17.91459701,-0.408149376,1.352605381
6.154309202,2.985707216,0.000393448,-0.001963354,,,8.126946264,0.576765842,-20.29808108,-36.75579842,6.869134882
6.154309202,2.985707216,0.000393448,-0.001963354,,,8.133457289,1.29227372,-17.85935032,-21.42738714,6.489940185
6.159061672,3.509738814,0.000252548,-0.002080001,,,8.133621673,1.887651347,-17.51369693,-4.810057543,5.511005226
6.165438449,2.552750494,0.000465614,-0.001806848,,,8.1339815,1.496687088,-17.21483375,-16.7959921,6.535502033
6.166666667,0,0,0,,,8.143128914,0.168770967,-20.89363777,-45.17999504,7.681023932
6.173599071,3.7194928,0.000180811,-0.002097351,,,8.155814986,1.649211533,-16.6919651,-12.23416412,6.338035172
6.175217838,0.289515198,0.000138334,-0.000283877,,,8.158476408,1.601221287,-17.01006775,-13.8538973,6.401797826
6.175217838,0.289515198,0.000138334,-0.000283877,,,8.177994309,1.909757342,-16.22300063,-2.901651774,3.336521379
6.182851417,0.581058574,0.000252044,-0.000548816,,,8.180612524,0.925980816,-19.21364764,-28.77274614,6.373903283
6.182851417,0.581058574,0.000252044,-0.000548816,,,8.188357747,1.265566098,-17.97394556,-21.25039435,6.256259775
6.184355086,2.688928169,0.000447911,-0.0018501,,,8.204338839,0.375643245,-20.55007177,-40.21030956,6.973881334
6.18535751,3.084809095,0.000371163,-0.001974029,,,8.219880813,0.716098329,-19.83031658,-32.82489837,6.409652347
6.18535751,3.084809095,0.000371163,-0.001974029,,,8.222902676,1.748971228,-16.73128337,-7.800178237,5.340721956
6.186112741,3.354829363,0.000299326,-0.00203544,,,8.225344093,0.028900501,-20.61077197,-47.40981457,7.864459212
6.186112741,3.354829363,0.000299326,-0.00203544,,,8.237476108,1.980761309,-12.59391121,-0.37192833,0.437358608
6.189646427,0.872034972,0.000342117,-0.000791886,,,8.23844465,1.46872141,-17.21268717,-15.720659,5.908984029
6.189646427,0.872034972,0.000342117,-0.000791886,,,8.25269895,0.13556318,-20.5721385,-44.87237698,7.417328267
6.193351987,3.592831754,0.000223804,-0.002069169,,,8.254942127,1.769583909,-16.42433054,-7.161065723,4.4977241
6.193351987,3.592831754,0.000223804,-0.002069169,,,8.256309896,0.346132734,-20.47627222,-40.33930493,6.86615847
6.198151724,1.162245356,0.000410489,-0.001012504,,,8.264235416,1.909757342,-15.00439166,-2.416367221,2.306600193
6.198151724,1.162245356,0.000410489,-0.001012504,,,8.271784608,1.818481881,-16.46308915,-5.182865511,3.861562541
6.200503289,1.450545917,0.000458279,-0.001211732,,,8.277460413,0.745557614,-19.69052825,-31.5900976,6.18117176
6.200503289,1.450545917,0.000458279,-0.001211732,,,8.283598738,0.51022028,-20.20246647,-36.57515229,6.469090757
6.201241847,2.319150186,0.000487853,-0.001692021,,,8.286758139,0.579428613,-20.06920927,-35.06439042,6.352709974
6.201241847,2.319150186,0.000487853,-0.001692021,,,8.289971506,1.07150792,-18.64558565,-24.31836731,5.865497423
6.203271724,2.825105844,0.000425736,-0.00188769,,,8.291297806,1.129658827,-18.43250742,-22.99670822,5.830778696
6.203271724,2.825105844,0.000425736,-0.00188769,,,8.293345108,1.442013787,-17.24616632,-15.5578466,5.528178358
6.205556689,1.740206821,0.000487193,-0.001390504,,,8.304117533,0.962234351,-19.01337507,-26.58509883,5.887190976
6.205556689,1.740206821,0.000487193,-0.001390504,,,8.308586466,1.659203928,-16.55264464,-9.880660452,4.76033698
6.209871872,2.038973461,0.000497204,-0.00155358,,,8.310338788,1.235002003,-18.02414468,-20.34885425,5.645453213
6.209871872,2.038973461,0.000497204,-0.00155358,,,8.311745866,1.602234232,-16.49581991,-11.00869634,4.977626527
6.211538462,3.788461538,0.000153196,-0.002076032,,,8.322347058,1.97716156,-11.23554609,-0.489591271,0.312025058
6.216405817,3.183910974,0.000346253,-0.001980672,,,8.333151454,1.887651347,-13.7008887,-2.451320656,1.677534458
6.216405817,3.183910974,0.000346253,-0.001980672,,,8.340196794,0.272677843,-20.33383529,-41.14248944,6.74460087
6.220403056,3.437922304,0.000273164,-0.002028485,,,8.342916552,1.769583909,-14.95026922,-5.520418102,3.311862893
6.223126426,2.917538886,0.000408166,-0.001906171,,,8.345294094,0.475188061,-20.15372095,-36.74194379,6.314833257
6.223126426,2.917538886,0.000408166,-0.001906171,,,8.346620815,1.683673445,-15.99994241,-8.110333009,4.20746519
6.231291378,3.661800493,0.000197904,-0.00205082,,,8.355111452,0.614400022,-19.904814,-33.64885745,6.063448315
6.245449278,2.491251002,0.000474383,-0.001746088,,,8.371113379,1.97716156,-10.61721383,-0.376926994,0.212472095
6.245449278,2.491251002,0.000474383,-0.001746088,,,8.374231324,1.887651347,-13.05996154,-2.303617118,1.525353337
6.247454125,3.283012853,0.00031869,-0.00198319,,,8.376918744,1.570529348,-16.47450666,-11.15949702,4.49535666
6.247454125,3.283012853,0.00031869,-0.00198319,,,8.378988606,0.822752956,-19.37009595,-28.87998916,5.716934354
6.247454125,3.283012853,0.00031869,-0.00198319,,,8.383996422,1.769583909,-14.94697949,-5.555347908,2.995062652
6.247454125,3.283012853,0.00031869,-0.00198319,,,8.391502315,1.371410013,-17.35898037,-16.1214233,4.984679846
6.247454125,3.283012853,0.00031869,-0.00198319,,,8.395387135,1.683673445,-15.61652659,-7.816618007,3.646649255
6.247454125,3.283012853,0.00031869,-0.00198319,,,8.402348069,0.506778468,-20.01322868,-35.53713745,6.05761928
6.254174734,3.016640766,0.000386889,-0.001917148,,,8.409006026,0.576782097,-19.89315967,-33.9597576,5.920758087
6.254275586,0.144757599,7.30246E-05,-0.00014281,,,8.420792126,0.13556318,-20.0800355,-43.42151035,6.807013836
6.254693371,3.521015244,0.000244989,-0.002018069,,,8.427781497,0.346132734,-20.11230226,-38.79007622,6.266773396
6.262826757,0.434272797,0.00019918,-0.000412758,,,8.432252248,1.605259283,-15.99706349,-9.668417782,3.827825138
6.262826757,0.434272797,0.00019918,-0.000412758,,,8.432301269,1.661433684,-15.55862339,-8.149198482,3.459622843
6.264365916,2.627428677,0.000458193,-0.001789166,,,8.442777459,0.028900501,-19.86353575,-45.57807616,7.044607184
6.269230769,3.730769231,0.000170413,-0.002029483,,,8.456928191,1.909757342,-11.52145604,-1.730294267,0.853168864
6.270041051,0.725532684,0.000301371,-0.000662874,,,8.463195266,0.748799953,-19.4603979,-29.71102867,5.469567751
6.270041051,0.725532684,0.000301371,-0.000662874,,,8.464477384,1.818481881,-13.2944042,-3.892943665,1.779881131
6.278546348,1.015743068,0.000380655,-0.000890115,,,8.475842738,0.372743925,-20.00256077,-37.80704583,6.033911333
6.28174444,3.366105794,0.000293242,-0.001976703,,,8.477371235,1.980761309,-9.466155328,-0.367225493,0.136641986
6.28174444,3.366105794,0.000293242,-0.001976703,,,8.479079961,1.445256126,-16.76619898,-13.39830453,4.170669198
6.282380611,2.167689598,0.000497194,-0.001589858,,,8.486192939,0.965412807,-18.809772,-24.68077111,5.087397553
6.283282553,2.763606352,0.000437428,-0.001826558,,,8.492414194,1.23818046,-17.7517651,-18.31381433,4.623798947
6.283282553,2.763606352,0.000437428,-0.001826558,,,8.494837253,1.769583909,-13.82240166,-4.951920665,2.051822392
6.283974779,1.304998541,0.000438818,-0.001095465,,,8.508595084,0.717111291,-19.47382656,-30.01059608,5.33241951
6.285223041,3.115742645,0.000362911,-0.001924064,,,8.525491289,1.075619345,-18.35952495,-21.81925785,4.742522529
6.286326345,1.593299102,0.000477194,-0.001279815,,,8.525691909,1.474511998,-16.40356596,-12.26038915,3.720581062
6.286326345,1.593299102,0.000477194,-0.001279815,,,8.525933054,1.750849535,-13.78785928,-5.329301729,2.01025009
6.288983686,3.604108185,0.000214782,-0.002004103,,,8.526817588,1.133770253,-18.13413335,-20.46683077,4.634686835
6.288983686,3.604108185,0.000214782,-0.002004103,,,8.53203388,0.168770967,-19.81518548,-41.80732086,6.286388243
6.291010636,1.887512874,0.000496946,-0.001446107,,,8.536974305,0.501534758,-19.7893349,-34.49560552,5.561288051
6.291010636,1.887512874,0.000496946,-0.001446107,,,8.542582848,0.560504554,-19.7053939,-33.15919333,5.439400137
6.300169314,2.393828369,0.000484718,-0.001682154,,,8.565546043,1.612860021,-15.11229115,-8.555418837,2.747462151
6.303137256,2.856039394,0.000420717,-0.001844875,,,8.565585177,1.909757342,-10.56687328,-1.699439753,0.53291868
6.316034755,3.449198734,0.000265713,-0.001966732,,,8.565587337,1.660180324,-14.63711833,-7.389142353,2.43840213
6.316034755,3.449198734,0.000265713,-0.001966732,,,8.565636989,0.397502586,-19.81414267,-36.53999129,5.643391205
6.316271349,3.214844524,0.000336195,-0.001926823,,,8.580095121,0.195382158,-19.72167806,-40.85701416,6.029128509
6.316271349,3.214844524,0.000336195,-0.001926823,,,8.591944904,0.674111388,-19.43703893,-30.266824,5.060241567
6.322991958,2.948472436,0.000401764,-0.001860155,,,8.601867159,0.93333458,-18.74373028,-24.41773521,4.611436085
6.322991958,2.948472436,0.000401764,-0.001860155,,,8.604441206,0.034308071,-19.37793397,-44.23986236,6.360175746
6.326923077,3.673076923,0.00018746,-0.001982776,,,8.609612383,1.272919862,-17.29480286,-16.52932515,3.867246255
6.333333333,0,0,0,,,8.61014433,1.508640124,-15.78258872,-10.85742417,3.005045331
6.339436747,3.308413486,0.000308645,-0.00192951,,,8.610338027,1.730604813,-13.4464048,-5.55074809,1.693355106
6.339436747,3.308413486,0.000308645,-0.00192951,,,8.617922175,1.980761309,-8.619254879,-0.354821148,0.09915206
6.341884505,0.289515198,0.000140142,-0.000276916,,,8.625623096,1.887651347,-10.66008459,-2.154891386,0.564530383
6.344376745,2.565929185,0.000467414,-0.001728292,,,8.646232321,0.260387922,-19.62542646,-38.94160555,5.613379177
6.344376745,2.565929185,0.000467414,-0.001728292,,,8.647266978,0.901645918,-18.76559197,-24.77129813,4.459808141
6.35032507,3.532291675,0.000236075,-0.001953185,,,8.656224331,1.302175734,-17.00083891,-15.51300043,3.524036836
6.35032507,3.532291675,0.000236075,-0.001953185,,,8.656718897,1.868916972,-10.84592523,-2.498258915,0.613858746
6.350435676,0.579030396,0.000254257,-0.000532347,,,8.661495181,0.065898479,-19.29489633,-43.13806792,6.028075
6.350435676,0.579030396,0.000254257,-0.000532347,,,8.699149237,0.816771239,-18.92872007,-26.29031809,4.379943709
6.350435676,0.579030396,0.000254257,-0.000532347,,,8.699817439,1.073110068,-18.03342681,-20.51202536,3.888433693
6.350435676,0.579030396,0.000254257,-0.000532347,,,8.701391903,1.142141586,-17.71982194,-18.92175378,3.719134215
6.350435676,0.579030396,0.000254257,-0.000532347,,,8.706159442,0.38664125,-19.54108488,-35.74112681,5.110648647
6.350435676,0.579030396,0.000254257,-0.000532347,,,8.711056209,1.375410571,-16.36443116,-13.46539711,2.983663046
6.354040265,3.047574316,0.000378795,-0.001867349,,,8.71144582,1.821880274,-11.37200393,-3.423817648,0.743583144
6.35488935,2.296405736,0.000492776,-0.001617721,,,8.718744145,0.487485307,-19.47524031,-33.43487179,4.869845323
6.35488935,2.296405736,0.000492776,-0.001617721,,,8.720490239,1.97716156,-8.32464237,-0.414355437,0.058074309
6.358940973,0.869240781,0.000344933,-0.000766377,,,8.723441868,0.184302525,-19.36566784,-40.08861638,5.470993802
6.363293383,2.70210686,0.000448146,-0.001765442,,,8.723720642,0.031590408,-19.03675111,-43.48834892,5.850473793
6.363293383,2.70210686,0.000448146,-0.001765442,,,8.724352688,0.546455103,-19.41078087,-32.09852977,4.741570014
6.363519375,2.016229011,0.000500915,-0.001486451,,,8.732467356,0.663250052,-19.22469844,-29.46496625,4.504142658
6.36744627,1.159451165,0.000413803,-0.000978198,,,8.746615222,1.615954999,-14.05933043,-7.788134596,1.733631243
6.36744627,1.159451165,0.000413803,-0.000978198,,,8.746656516,1.663275303,-13.50232873,-6.741188374,1.488936758
6.369797835,1.447751726,0.000461969,-0.001168252,,,8.750125116,1.511032788,-15.11628685,-10.16088816,2.229503109
6.372149401,1.736052287,0.000490981,-0.001337487,,,8.750318813,1.732997476,-12.54800163,-5.234309244,1.109839368
6.372149401,1.736052287,0.000490981,-0.001337487,,,8.753712014,1.035492143,-18.0795678,-21.01743628,3.717144932
6.372149401,1.736052287,0.000490981,-0.001337487,,,8.756725407,1.176871521,-17.41168287,-17.79162555,3.365960699
6.372149401,1.736052287,0.000490981,-0.001337487,,,8.757404372,1.954921799,-8.686626558,-0.821059601,0.106296169
6.372149401,1.736052287,0.000490981,-0.001337487,,,8.775859475,0.155402024,-19.19771251,-40.39162384,5.317541804
6.372149401,1.736052287,0.000490981,-0.001337487,,,8.790613724,0.890566285,-18.5386747,-24.03520303,3.849177417
6.373727062,3.391506427,0.000281586,-0.001919676,,,8.799018524,1.304616486,-16.52569391,-14.64525667,2.784141553
6.383148085,2.794539902,0.000432356,-0.001783575,,,8.79951309,1.871357725,-10.12661902,-2.392425535,0.362598487
6.384615385,3.615384615,0.000204302,-0.001935965,,,8.800959325,0.347614841,-19.34960975,-35.97598825,4.804348737
6.384615385,3.615384615,0.000204302,-0.001935965,,,8.816957169,1.977760239,-8.091696408,-0.407185874,0.03776572
6.384615385,3.615384615,0.000204302,-0.001935965,,,8.820281281,1.05481678,-17.84314041,-20.1826932,3.372443003
6.385088573,3.146676195,0.000353006,-0.001870359,,,8.821760462,1.167534964,-17.28186981,-17.63761079,3.08472858
6.385088573,3.146676195,0.000353006,-0.001870359,,,8.833711671,0.691982207,-18.98943054,-28.17515438,4.037485348
6.399096781,2.468506552,0.000479186,-0.001666477,,,8.846690476,0.90684501,-18.37520571,-23.33802546,3.579184608
6.403002787,2.886972944,0.000414262,-0.00179865,,,8.849555281,1.480047729,-14.97726301,-10.51866195,1.915591912
6.408017377,3.474599367,0.000252349,-0.00190624,,,8.849679294,1.890596415,-9.610904283,-2.01581443,0.239196975
6.408253972,3.240245157,0.000326253,-0.001873248,,,8.849796426,1.756385266,-11.75408427,-4.640718562,0.736523839
6.420942252,0.144757599,7.38858E-05,-0.000139363,,,8.85173005,1.117229403,-17.4658185,-18.6138288,3.082069794
6.42285749,2.979405986,0.000393833,-0.00181061,,,8.853376932,0.31871434,-19.23128068,-36.29334102,4.646199247
6.42285749,2.979405986,0.000393833,-0.00181061,,,8.853802883,1.296751538,-16.41202714,-14.58850579,2.561038496
6.429493424,0.434272797,0.000201189,-0.00040185,,,8.854185501,0.47185481,-19.2366252,-32.90742556,4.352078319
6.429493424,0.434272797,0.000201189,-0.00040185,,,8.860843458,0.541858438,-19.1706277,-31.32375342,4.197759651
6.43141937,3.333814119,0.000297072,-0.001872575,,,8.882347999,1.612952679,-13.46987873,-7.570108549,1.248320676
6.43141937,3.333814119,0.000297072,-0.001872575,,,8.88239702,1.669127079,-12.78835214,-6.396525889,1.0184947
6.436028114,2.144945148,0.000500565,-0.00151834,,,8.886199509,0.026611191,-18.61276361,-42.62028788,5.13358737
6.439335598,0.722738493,0.000303145,-0.000641244,,,8.889788423,0.708260932,-18.85229187,-27.4871434,3.779386494
6.439335598,0.722738493,0.000303145,-0.000641244,,,8.892106862,0.124824742,-18.87143277,-40.38147587,4.884794195
6.442307692,3.557692308,0.000220904,-0.001889103,,,8.89996263,1.775623956,-11.27825844,-4.220985662,0.559978113
6.443304213,2.640607368,0.000457816,-0.001704449,,,8.90433964,1.472182781,-14.83030532,-10.5333622,1.736312074
6.443304213,2.640607368,0.000457816,-0.001704449,,,8.916410961,0.437546738,-19.13528765,-33.30573904,4.162860393
6.443304213,2.640607368,0.000457816,-0.001704449,,,8.927412725,0.561183074,-19.02977871,-30.51958883,3.893517671
6.443304213,2.640607368,0.000457816,-0.001704449,,,8.941949816,1.691965519,-12.26983745,-5.859302328,0.783057301
6.443304213,2.640607368,0.000457816,-0.001704449,,,8.946759733,1.912122932,-9.010441327,-1.599961403,0.11943349
6.44465814,1.864768424,0.000498887,-0.001382023,,,8.947383054,1.603616122,-13.32265928,-7.657977247,1.098769869
6.44465814,1.864768424,0.000498887,-0.001382023,,,8.949675706,1.981265626,-7.839757859,-0.336421015,0.014931157
6.447840895,1.012948877,0.00038288,-0.000859763,,,8.952033982,0.25107807,-18.97431501,-37.23910963,4.368018455
6.453269326,1.30220435,0.000441303,-0.001055872,,,8.962187676,0.89312963,-18.18535035,-23.03526809,3.130627501
6.453816817,2.371083919,0.000488648,-0.00160422,,,8.962814111,0.491179446,-19.02770295,-31.87316041,3.877178344
6.453905797,3.078507866,0.000369053,-0.001813882,,,8.968032441,1.33851857,-15.73608118,-13.2538191,1.966360989
6.453905797,3.078507866,0.000369053,-0.001813882,,,8.974739761,0.996709191,-17.7459797,-20.69883637,2.857899194
6.455620891,1.590504911,0.00047989,-0.001230566,,,8.976149898,1.256246605,-16.30687206,-15.01008921,2.188609007
6.455620891,1.590504911,0.00047989,-0.001230566,,,8.98168624,1.659790522,-12.53154962,-6.467464586,0.810482791
6.463158915,2.73304041,0.000443012,-0.001722377,,,8.985632726,1.823240134,-10.30597183,-3.263680786,0.296175796
6.463158915,2.73304041,0.000443012,-0.001722377,,,8.995505795,0.739608443,-18.58503717,-26.24571279,3.297486145
6.465709685,3.41690706,0.000268291,-0.001859271,,,9.001231638,1.049284461,-17.4415763,-19.4373621,2.635286809
6.477071196,3.172076828,0.00034318,-0.001816981,,,9.001395739,1.213870106,-16.51374795,-15.84858777,2.213262738
6.483013617,2.825473452,0.000425845,-0.001737233,,,9.007101348,1.474140786,-14.44898028,-10.25434425,1.388961905
6.483013617,2.825473452,0.000425845,-0.001737233,,,9.024848533,0.31871434,-18.90661303,-35.3681141,3.935434986
6.498024249,2.543184735,0.000471098,-0.001644814,,,9.039613326,1.775623956,-10.84535441,-4.153171428,0.361051187
6.498024249,2.543184735,0.000471098,-0.001644814,,,9.051825472,0.641518376,-18.69159516,-28.13317451,3.255928796
6.5,0,0,0,,,9.060200038,0.124824742,-18.52911187,-39.52051226,4.143003247
6.5,3.5,0.00023723,-0.001842241,,,9.06393771,0.363893567,-18.86248587,-34.1825083,3.693315563
6.500236594,3.26564579,0.000314785,-0.001816491,,,9.06654079,1.57002587,-13.28552697,-8.188388428,0.921042162
6.502868319,2.917906494,0.000406273,-0.001748955,,,9.073086573,1.748520318,-11.12605506,-4.662909835,0.391350437
6.502868319,2.917906494,0.000406273,-0.001748955,,,9.081646962,0.58254858,-18.72928217,-29.29017821,3.242674722
6.508536853,2.273661285,0.000495713,-0.001541605,,,9.083658956,1.912122932,-8.796129595,-1.594901555,0.063338106
6.508536853,2.273661285,0.000495713,-0.001541605,,,9.086452754,1.139743719,-16.7488625,-17.16574694,2.102585617
6.508551171,0.289515198,0.000141358,-0.000269709,,,9.095437176,1.617346174,-12.66977009,-7.209193559,0.719360719
6.508551171,0.289515198,0.000141358,-0.000269709,,,9.103632874,0.026611191,-18.15663728,-41.539138,4.13117819
6.517166879,1.993484561,0.000502531,-0.001418041,,,9.121032186,0.827702072,-18.09551662,-23.78135867,2.652383313
6.517166879,1.993484561,0.000502531,-0.001418041,,,9.126758795,1.981265626,-7.729181459,-0.338898788,0.006170268
6.518108776,0.57643954,0.000255147,-0.000514959,,,9.127037818,1.434433903,-14.44622223,-10.86228165,1.180593774
6.518108776,0.57643954,0.000255147,-0.000514959,,,9.135389044,0.462999641,-18.74098395,-31.68227861,3.234683172
6.522723021,3.010339536,0.000384263,-0.001757473,,,9.142645223,1.696105474,-11.61608391,-5.637259506,0.434723804
6.522723021,3.010339536,0.000384263,-0.001757473,,,9.164764441,0.155402024,-18.41329552,-38.38113456,3.62611818
6.522723021,3.010339536,0.000384263,-0.001757473,,,9.166413078,1.890596415,-9.013390464,-1.986167259,0.063684752
6.522723021,3.010339536,0.000384263,-0.001757473,,,9.180209709,0.912076759,-17.67329168,-21.75031431,2.277034071
6.522723021,3.010339536,0.000384263,-0.001757473,,,9.181827933,1.38031585,-14.77328764,-11.88497154,1.192991093
6.522723021,3.010339536,0.000384263,-0.001757473,,,9.199886326,1.863492777,-9.34446059,-2.477417643,0.083437799
6.523401993,3.359214752,0.000283861,-0.001812327,,,9.203853619,0.200581251,-18.4437993,-37.2171248,3.381479647
6.523401993,3.359214752,0.000283861,-0.001812327,,,9.206701586,0.964652029,-17.39508829,-20.54045959,2.083173992
6.528235519,0.866446589,0.000346157,-0.000740079,,,9.207073774,1.337939352,-15.05985123,-12.70773447,1.23956976
6.528235519,0.866446589,0.000346157,-0.000740079,,,9.214197473,0.755470022,-18.14467059,-25.00794251,2.443841684
6.536740816,1.156656973,0.000415154,-0.000942669,,,9.221682068,1.518663873,-13.38520665,-9.046880645,0.75466656
6.536740816,1.156656973,0.000415154,-0.000942669,,,9.240671453,1.784988272,-10.31460321,-3.925317029,0.172449444
6.539092382,1.444957534,0.000463413,-0.001123032,,,9.2435551,0.336746313,-18.55090147,-34.04654501,3.001304875
6.539092382,1.444957534,0.000463413,-0.001123032,,,9.244018963,0.696500226,-18.24818677,-26.18406176,2.43604143
6.54588842,3.103908498,0.000359354,-0.001760791,,,9.245297263,1.07431616,-16.76118631,-18.10968385,1.736649507
6.54588842,3.103908498,0.000359354,-0.001760791,,,9.245458131,1.235659052,-15.74070007,-14.74452441,1.383537463
6.547689711,2.658787926,0.000454582,-0.00165525,,,9.250578454,1.565984176,-12.83316507,-8.090595102,0.594205414
6.547689711,2.658787926,0.000454582,-0.00165525,,,9.257144429,1.977760239,-7.751298321,-0.399233891,-0.000490636
6.549712151,1.739940256,0.000493001,-0.001282876,,,9.260915434,0.551093269,-18.47255129,-29.28246886,2.603991224
6.549712151,1.739940256,0.000493001,-0.001282876,,,9.262581692,1.656398591,-11.8197696,-6.338220601,0.383934724
6.552744285,2.445762102,0.000482038,-0.00158479,,,9.264209279,0.031590408,-17.90333967,-40.79393975,3.376068306
6.552744285,2.445762102,0.000482038,-0.00158479,,,9.296880853,1.945585242,-8.176920711,-0.982128662,0.004031338
6.557692308,3.442307692,0.000253242,-0.001795428,,,9.310612429,0.085223115,-18.00448754,-39.42404939,3.084682378
6.567544413,2.751220968,0.000438705,-0.001670121,,,9.322233341,1.822987843,-9.735251416,-3.213844156,0.084925382
6.569053818,3.19747746,0.000331834,-0.001760498,,,9.331031652,0.844440291,-17.66173371,-22.75463144,1.892040534
6.569053818,3.19747746,0.000331834,-0.001760498,,,9.331902904,0.290445431,-18.38258334,-34.77502878,2.704420026
6.587399115,2.84365401,0.000420357,-0.001681848,,,9.33302809,1.475942173,-13.54954431,-9.781972102,0.661593925
6.587608919,0.144757599,7.44249E-05,-0.000135807,,,9.350574866,1.656653387,-11.6537876,-6.29722616,0.298882171
6.587608919,0.144757599,7.44249E-05,-0.000135807,,,9.354358997,0.567709393,-18.31384012,-28.63249861,2.231501907
6.589675618,2.122200698,0.000501794,-0.00144539,,,9.362480421,0.906852915,-17.36491234,-21.35657951,1.688535627
6.589675618,2.122200698,0.000501794,-0.00144539,,,9.362997677,1.425636613,-13.95435288,-10.7426623,0.715136876
6.592219217,3.291046423,0.000301686,-0.001756503,,,9.364565976,1.967825003,-7.877945773,-0.579618364,-0.003354567
6.592219217,3.291046423,0.000301686,-0.001756503,,,9.366433038,0.774436662,-17.84098397,-24.15421462,1.886447751
6.597166524,0.431681941,0.000201278,-0.000388314,,,9.367331275,1.532116574,-12.94002777,-8.665607047,0.502794461
6.602409747,2.561365292,0.000468141,-0.001597285,,,9.368902736,1.062495118,-16.58819135,-18.08671511,1.402754599
6.603580727,3.046216191,0.000372421,-0.001713706,,,9.369110823,1.271196796,-15.22141595,-13.81696862,1.011169525
6.603580727,3.046216191,0.000372421,-0.001713706,,,9.37925007,1.841722218,-9.448552993,-2.863728728,0.050678456
6.607008698,0.720147636,0.000303542,-0.000619409,,,9.379736483,0.09569205,-17.94253956,-38.97626796,2.758478188
6.607253817,2.936087052,0.00039949,-0.001690359,,,9.390131763,0.299264273,-18.31269663,-34.40654321,2.453456685
6.607253817,2.936087052,0.00039949,-0.001690359,,,9.407591596,1.675387761,-11.36204059,-5.931053027,0.226386421
6.607464321,2.348339469,0.000490531,-0.001524464,,,9.412587855,0.576528235,-18.22275352,-28.28641288,2.006537148
6.607464321,2.348339469,0.000490531,-0.001524464,,,9.417452019,0.042059343,-17.7323276,-40.08044261,2.653055696
6.615384615,3.384615385,0.000268902,-0.001748714,,,9.434154259,1.074385388,-16.41114777,-17.72647484,1.21060636
6.615384615,3.384615385,0.000268902,-0.001748714,,,9.434362346,1.283087066,-15.00631025,-13.49427511,0.852916601
6.615384615,3.384615385,0.000268902,-0.001748714,,,9.435016399,1.554356335,-12.59843262,-8.202779333,0.386161464
6.617135441,1.010154686,0.000383239,-0.000828473,,,9.435557092,0.784905597,-17.70684474,-23.77040116,1.645372976
6.617135441,1.010154686,0.000383239,-0.000828473,,,9.43994115,0.920967972,-17.18062225,-20.89541632,1.434902339
6.62222089,1.868656393,0.000499597,-0.001321065,,,9.440458406,1.43975167,-13.68664382,-10.40482717,0.569414898
6.622563872,1.299410158,0.000441569,-0.001014885,,,9.477616435,0.869024283,-17.3451712,-21.91182225,1.398866816
6.622563872,1.299410158,0.000441569,-0.001014885,,,9.478173942,1.512296992,-12.94302178,-8.981520063,0.404200946
6.626746126,3.139785153,0.000345718,-0.001713606,,,9.508119032,1.87286534,-9.002856986,-2.290957096,0.011604605
6.633183642,1.59439288,0.00048074,-0.001180462,,,9.516688395,0.378112735,-18.21397305,-32.35846185,1.851815976
6.649911525,3.233354115,0.000316306,-0.001709786,,,9.530029271,1.744275659,-10.45806457,-4.631779047,0.089829108
6.652075209,2.676968483,0.000450106,-0.001603397,,,9.532848319,1.972896362,-7.821781339,-0.487949453,-0.004139517
6.652075209,2.676968483,0.000450106,-0.001603397,,,9.53404873,0.592459691,-18.05018246,-27.6737107,1.556858662
6.657129783,2.463942659,0.00047928,-0.001539006,,,9.543894112,0.252080861,-18.08302569,-35.07930022,1.871591262
6.662184357,2.250916835,0.000496493,-0.001463924,,,9.551371675,1.130089685,-15.89564655,-16.43196197,0.850385812
6.662184357,2.250916835,0.000496493,-0.001463924,,,9.551532543,1.291432576,-14.75878725,-13.21528505,0.627645799
6.662184357,2.250916835,0.000496493,-0.001463924,,,9.575665001,0.206901634,-17.98232664,-36.01767032,1.781254745
6.662184357,2.250916835,0.000496493,-0.001463924,,,9.575665001,0.035430033,-17.54854768,-39.86112308,1.932646268
6.662184357,2.250916835,0.000496493,-0.001463924,,,9.583540447,1.675387761,-11.15879999,-5.889019387,0.12846973
6.662184357,2.250916835,0.000496493,-0.001463924,,,9.584059456,0.747999836,-17.63836145,-24.2741223,1.224363504
6.666666667,0,0,0,,,9.587752508,1.034087931,-16.41867058,-18.33472593,0.89075998
6.666666667,0,0,0,,,9.588124696,1.407375254,-13.75618974,-10.93580649,0.421186719
6.666666667,0,0,0,,,9.619489489,0.818859903,-17.36761558,-22.73732642,1.045565046
6.671929911,2.769401525,0.000433086,-0.001615121,,,9.619489489,0.990331503,-16.61495497,-19.19257068,0.864489806
6.673076923,3.326923077,0.000284169,-0.001702148,,,9.619895584,1.468486127,-13.17078573,-9.753439318,0.314203869
6.676224271,0.286924342,0.00014078,-0.000259986,,,9.619895584,1.639957728,-11.50030916,-6.540235824,0.142885271
6.684438434,3.082092845,0.000359032,-0.001666879,,,9.66571566,0.166191163,-17.83012531,-36.77140851,1.429875232
6.684438434,3.082092845,0.000359032,-0.001666879,,,9.680601245,1.87286534,-8.952678001,-2.288762188,-9.32855E-05
6.685781876,0.573848683,0.00025482,-0.000497213,,,9.684781571,0.546205911,-17.97691498,-28.42513838,1.077426302
6.685781876,0.573848683,0.00025482,-0.000497213,,,9.700239893,0.924842018,-16.85600743,-20.45049203,0.727452869
6.688111524,2.971963706,0.000387859,-0.001646829,,,9.700559808,1.578084496,-12.05609443,-7.671853565,0.14823085
6.691784614,2.861834567,0.000413474,-0.001623621,,,9.702104517,1.251929081,-14.88427902,-13.88849313,0.430202546
6.691784614,2.861834567,0.000413474,-0.001623621,,,9.75595903,1.972896362,-7.843662569,-0.488215971,-0.002189639
6.694729629,1.99737253,0.000501865,-0.001350468,,,9.761327477,0.469514226,-17.99674554,-29.990182,0.856376389
6.695908619,0.863855733,0.000345718,-0.000713482,,,9.778309632,1.841722218,-9.275958015,-2.850261415,0.004017845
6.706035363,1.153862782,0.000414363,-0.000906062,,,9.779036729,0.68816924,-17.64571769,-25.3058187,0.672976453
6.706035363,1.153862782,0.000414363,-0.000906062,,,9.78272978,1.1916907,-15.25238163,-15.03061049,0.348595124
6.706035363,1.153862782,0.000414363,-0.000906062,,,9.782893881,1.356276346,-14.00245217,-11.83592566,0.238858799
6.706035363,1.153862782,0.000414363,-0.000906062,,,9.793098366,0.424334999,-17.99859907,-30.9401399,0.763656208
6.706035363,1.153862782,0.000414363,-0.000906062,,,9.793098366,0.035430033,-17.41169153,-39.54937843,0.939680611
6.706035363,1.153862782,0.000414363,-0.000906062,,,9.814466762,0.759029306,-17.42351988,-23.7917338,0.529713338
6.706795245,2.57954585,0.000463974,-0.001547214,,,9.814466762,1.147934272,-15.52693993,-15.87941829,0.321145923
6.707603832,3.175661807,0.000330423,-0.001663247,,,9.81466477,1.417387218,-13.46717986,-10.66322307,0.1690094
6.711849819,2.366520026,0.000487883,-0.001480502,,,9.81466477,1.806292184,-9.645455521,-3.486092095,0.009074436
6.711849819,2.366520026,0.000487883,-0.001480502,,,9.833808837,0.33428434,-17.96422659,-32.87151548,0.64749061
6.716655132,1.448845504,0.000463165,-0.001077692,,,9.833808837,0.166191163,-17.74093945,-36.58497706,0.709164433
6.727274902,1.743828225,0.000492047,-0.001225355,,,9.850972735,0.878588238,-16.96405664,-21.29455043,0.375395707
6.727274902,1.743828225,0.000492047,-0.001225355,,,9.850972735,1.046681414,-16.12866545,-17.88168419,0.302529178
6.730769231,3.269230769,0.000299002,-0.001655776,,,9.851131782,1.538581001,-12.3509522,-8.382370693,0.083670793
6.755282019,0.142166742,7.33405E-05,-0.000129818,,,9.851131782,1.706674177,-10.68380729,-5.292147152,0.029236032
6.755282019,0.142166742,7.33405E-05,-0.000129818,,,9.919167172,1.967825003,-7.906933595,-0.577685926,-0.001071578
6.756460708,2.69514904,0.000444335,-0.00154891,,,9.920225121,0.636180688,-17.71143805,-26.32371964,0.252473433
6.756460708,2.69514904,0.000444335,-0.00154891,,,9.924609179,1.3127317,-14.29029576,-12.64023998,0.090613954
6.761515281,2.482123216,0.000475334,-0.001490786,,,9.957940657,0.582547981,-17.8046471,-27.4537187,0.138606874
6.761515281,2.482123216,0.000475334,-0.001490786,,,9.957940657,0.042059343,-17.39185294,-39.30814726,0.190257302
6.764839624,0.429091084,0.00020038,-0.000374586,,,9.962284464,0.720299374,-17.49692465,-24.54346927,0.110887477
6.76529614,3.117969499,0.000343992,-0.001616933,,,9.962284464,1.260788012,-14.68363783,-13.63907446,0.051252464
6.76529614,3.117969499,0.000343992,-0.001616933,,,9.962324715,1.385277022,-13.69443257,-11.25173546,0.037435152
6.767238368,2.126088667,0.000499699,-0.001370956,,,9.962324715,1.92576566,-8.360625139,-1.335810244,-0.000388653
6.767238368,2.126088667,0.000499699,-0.001370956,,,9.964569967,0.206901634,-17.78833582,-35.62220124,0.148068242
6.76896923,3.00784036,0.000374691,-0.001600306,,,9.964569967,0.424334999,-17.94997607,-30.85308899,0.130535252
6.77264232,2.897711221,0.000402084,-0.001580435,,,9.968229111,0.883317495,-16.91389984,-21.16477927,0.079216251
6.774681798,0.717556779,0.000302424,-0.000597103,,,9.968229111,1.10075086,-15.77634006,-16.77689217,0.059136047
6.77631541,2.787582082,0.000426094,-0.001557398,,,9.968263018,1.548561362,-12.22699823,-8.190195911,0.016632646
6.77631541,2.787582082,0.000426094,-0.001557398,,,9.968263018,1.765994727,-10.05292605,-4.214199091,0.00212767
6.784808541,1.007563829,0.000381653,-0.000796805,,,,,,,
6.784808541,1.007563829,0.000381653,-0.000796805,,,,,,,
6.788348833,2.268733491,0.000493408,-0.001411434,,,,,,,
6.788348833,2.268733491,0.000493408,-0.001411434,,,,,,,
6.788461538,3.211538462,0.000313359,-0.001609647,,,,,,,
6.799783641,1.872544362,0.000497166,-0.001256962,,,,,,,
6.800126623,1.303298128,0.000440366,-0.000974497,,,,,,,
6.800126623,1.303298128,0.000440366,-0.000974497,,,,,,,
6.810746393,1.598280849,0.000478545,-0.001127911,,,,,,,
6.811180744,2.597726407,0.000458555,-0.00149463,,,,,,,
6.811180744,2.597726407,0.000458555,-0.00149463,,,,,,,
6.833333333,0,0,0,,,,,,,
6.838014295,2.384336681,0.000483485,-0.001423046,,,,,,,
6.843897372,0.284333485,0.000139493,-0.000250211,,,,,,,
6.843897372,0.284333485,0.000139493,-0.000250211,,,,,,,
6.846153846,3.153846154,0.000327194,-0.001563806,,,,,,,
6.846153846,3.153846154,0.000327194,-0.001563806,,,,,,,
6.846153846,3.153846154,0.000327194,-0.001563806,,,,,,,
6.849826936,3.043717015,0.000359883,-0.001550736,,,,,,,
6.849826936,3.043717015,0.000359883,-0.001550736,,,,,,,
6.853454976,0.571257826,0.000253192,-0.000479179,,,,,,,
6.853454976,0.571257826,0.000253192,-0.000479179,,,,,,,
6.853500026,2.933587876,0.000389174,-0.001534328,,,,,,,
6.853500026,2.933587876,0.000389174,-0.001534328,,,,,,,
6.857173116,2.823458737,0.000414974,-0.001514661,,,,,,,
6.857173116,2.823458737,0.000414974,-0.001514661,,,,,,,
6.860846206,2.713329597,0.000437219,-0.001491827,,,,,,,
6.860846206,2.713329597,0.000437219,-0.001491827,,,,,,,
6.860846206,2.713329597,0.000437219,-0.001491827,,,,,,,
6.860846206,2.713329597,0.000437219,-0.001491827,,,,,,,
6.860846206,2.713329597,0.000437219,-0.001491827,,,,,,,
6.860846206,2.713329597,0.000437219,-0.001491827,,,,,,,
6.860846206,2.713329597,0.000437219,-0.001491827,,,,,,,
6.863581719,0.861264876,0.000343469,-0.000686314,,,,,,,
6.863581719,0.861264876,0.000343469,-0.000686314,,,,,,,
6.87229238,2.001260499,0.000497953,-0.001279517,,,,,,,
6.87229238,2.001260499,0.000497953,-0.001279517,,,,,,,
6.874830914,1.14617268,0.000410302,-0.00086574,,,,,,,
6.874830914,1.14617268,0.000410302,-0.00086574,,,,,,,
6.887679757,2.499939872,0.000469457,-0.001428267,,,,,,,
6.893402844,2.143905323,0.000495857,-0.001320945,,,,,,,
6.894217883,1.452733473,0.000459885,-0.001030348,,,,,,,
6.894217883,1.452733473,0.000459885,-0.001030348,,,,,,,
6.903846154,3.096153846,0.000340461,-0.001518299,,,,,,,
6.904837653,1.747716194,0.000487768,-0.001165173,,,,,,,
6.904837653,1.747716194,0.000487768,-0.001165173,,,,,,,
6.907519244,2.986024707,0.000372008,-0.001505182,,,,,,,
6.911192334,2.875895568,0.000400014,-0.001488715,,,,,,,
6.914513309,2.286550146,0.000488628,-0.001355988,,,,,,,
6.914513309,2.286550146,0.000488628,-0.001355988,,,,,,,
6.914865424,2.765766429,0.000424395,-0.001468989,,,,,,,
6.914865424,2.765766429,0.000424395,-0.001468989,,,,,,,
6.921948686,0.142166742,7.31468E-05,-0.000126154,,,,,,,
6.932512724,0.426500227,0.000198434,-0.000360722,,,,,,,
6.932512724,0.426500227,0.000198434,-0.000360722,,,,,,,
6.93734522,2.615543062,0.000450959,-0.001426926,,,,,,,
6.93734522,2.615543062,0.000450959,-0.001426926,,,,,,,
6.942354898,0.714965923,0.000299694,-0.00057442,,,,,,,
6.942354898,0.714965923,0.000299694,-0.00057442,,,,,,,
6.953604092,0.999873727,0.000376746,-0.000761118,,,,,,,
6.961538462,3.038461538,0.000353111,-0.001473173,,,,,,,
6.964178771,2.402153337,0.000477393,-0.001362559,,,,,,,
6.965211552,2.928332399,0.00038342,-0.001460011,,,,,,,
6.968884641,2.81820326,0.000410042,-0.001443492,,,,,,,
6.968884641,2.81820326,0.000410042,-0.001443492,,,,,,,
6.968922174,1.295608026,0.000434677,-0.000928535,,,,,,,
6.972557731,2.708074121,0.000432902,-0.001423718,,,,,,,
6.972557731,2.708074121,0.000432902,-0.001423718,,,,,,,
6.977346392,1.876432332,0.000491237,-0.001189992,,,,,,,
6.977346392,1.876432332,0.000491237,-0.001189992,,,,,,,
6.988309143,1.602168818,0.000472972,-0.001073206,,,,,,,
6.988309143,1.602168818,0.000472972,-0.001073206,,,,,,,
6.998456856,2.019077155,0.000493102,-0.001232332,,,,,,,
7,0,0,0,,,,,,,
7.010564038,0.284333485,0.000138604,-0.000242574,,,,,,,
7.013844233,2.517756527,0.000461846,-0.001362658,,,,,,,
7.013844233,2.517756527,0.000461846,-0.001362658,,,,,,,
7.019230769,2.980769231,0.000365093,-0.001428473,,,,,,,
7.01956732,2.161721978,0.00049023,-0.001268199,,,,,,,
7.021128076,0.56866697,0.000250187,-0.000460934,,,,,,,
7.021128076,0.56866697,0.000250187,-0.000460934,,,,,,,
7.021128076,0.56866697,0.000250187,-0.000460934,,,,,,,
7.021128076,0.56866697,0.000250187,-0.000460934,,,,,,,
7.021128076,0.56866697,0.000250187,-0.000460934,,,,,,,
7.021128076,0.56866697,0.000250187,-0.000460934,,,,,,,
7.022903859,2.870640092,0.000394062,-0.001415269,,,,,,,
7.022903859,2.870640092,0.000394062,-0.001415269,,,,,,,
7.026576949,2.760510953,0.000419195,-0.001398703,,,,,,,
7.032377271,0.853574774,0.000337906,-0.000655239,,,,,,,
7.040677785,2.304366802,0.000482133,-0.001297683,,,,,,,
7.040677785,2.304366802,0.000482133,-0.001297683,,,,,,,
7.043626465,1.138482578,0.000403844,-0.000825065,,,,,,,
7.043626465,1.138482578,0.000403844,-0.000825065,,,,,,,
7.049056745,2.610287586,0.000446239,-0.001360613,,,,,,,
7.063013434,1.445043371,0.000452286,-0.000978414,,,,,,,
7.076923077,2.923076923,0.000376352,-0.001384245,,,,,,,
7.076923077,2.923076923,0.000376352,-0.001384245,,,,,,,
7.080596167,2.812947784,0.000403875,-0.001371,,,,,,,
7.082400404,1.751604164,0.000479767,-0.001102676,,,,,,,
7.082400404,1.751604164,0.000479767,-0.001102676,,,,,,,
7.082400404,1.751604164,0.000479767,-0.001102676,,,,,,,
7.082400404,1.751604164,0.000479767,-0.001102676,,,,,,,
7.082400404,1.751604164,0.000479767,-0.001102676,,,,,,,
7.082400404,1.751604164,0.000479767,-0.001102676,,,,,,,
7.082400404,1.751604164,0.000479767,-0.001102676,,,,,,,
7.084269257,2.702818645,0.000427406,-0.001354394,,,,,,,
7.084269257,2.702818645,0.000427406,-0.001354394,,,,,,,
7.088615352,0.142166742,7.25483E-05,-0.000122428,,,,,,,
7.090343247,2.419969992,0.000469602,-0.001299177,,,,,,,
7.090343247,2.419969992,0.000469602,-0.001299177,,,,,,,
7.099179391,0.426500227,0.000196411,-0.00034881,,,,,,,
7.099179391,0.426500227,0.000196411,-0.00034881,,,,,,,
7.103510868,1.894248987,0.000485179,-0.001146011,,,,,,,
7.103510868,1.894248987,0.000485179,-0.001146011,,,,,,,
7.111150449,0.707275821,0.000293681,-0.000547902,,,,,,,
7.111150449,0.707275821,0.000293681,-0.000547902,,,,,,,
7.122399643,0.992183625,0.000369646,-0.000725287,,,,,,,
7.124621332,2.03689381,0.000486298,-0.001182643,,,,,,,
7.124621332,2.03689381,0.000486298,-0.001182643,,,,,,,
7.125555759,2.512501051,0.000456573,-0.001298271,,,,,,,
7.134615385,2.865384615,0.000386829,-0.001340533,,,,,,,
7.137717725,1.287917924,0.000426278,-0.000882219,,,,,,,
7.138288475,2.755255476,0.000412791,-0.001327248,,,,,,,
7.145731796,2.179538634,0.000482782,-0.001212825,,,,,,,
7.145731796,2.179538634,0.000482782,-0.001212825,,,,,,,
7.157104695,1.594478716,0.000463203,-0.001014961,,,,,,,
7.157104695,1.594478716,0.000463203,-0.001014961,,,,,,,
7.160768271,2.60503211,0.000440375,-0.001293292,,,,,,,
7.166666667,0,0,0,,,,,,,
7.166842261,2.322183457,0.000473942,-0.001236667,,,,,,,
7.166842261,2.322183457,0.000473942,-0.001236667,,,,,,,
7.166842261,2.322183457,0.000473942,-0.001236667,,,,,,,
7.166842261,2.322183457,0.000473942,-0.001236667,,,,,,,
7.166842261,2.322183457,0.000473942,-0.001236667,,,,,,,
7.166842261,2.322183457,0.000473942,-0.001236667,,,,,,,
7.177230705,0.284333485,0.000136915,-0.000234815,,,,,,,
7.177230705,0.284333485,0.000136915,-0.000234815,,,,,,,
7.188035313,0.565320828,0.0002455,-0.000442106,,,,,,,
7.188035313,0.565320828,0.0002455,-0.000442106,,,,,,,
7.192307692,2.807692308,0.000396463,-0.001297386,,,,,,,
7.195980782,2.697563169,0.000420739,-0.001284061,,,,,,,
7.195980782,2.697563169,0.000420739,-0.001284061,,,,,,,
7.19912361,1.829450454,0.000476198,-0.001086153,,,,,,,
7.19912361,1.829450454,0.000476198,-0.001086153,,,,,,,
7.201172822,0.845884672,0.000330372,-0.000624186,,,,,,,
7.201172822,0.845884672,0.000330372,-0.000624186,,,,,,,
7.202054772,2.414714516,0.000463572,-0.001236846,,,,,,,
7.202054772,2.414714516,0.000463572,-0.001236846,,,,,,,
7.212422016,1.130792476,0.000394918,-0.000784252,,,,,,,
7.212422016,1.130792476,0.000394918,-0.000784252,,,,,,,
7.220234074,1.972095277,0.000479061,-0.001121517,,,,,,,
7.231808985,1.437353269,0.000441618,-0.000926179,,,,,,,
7.231808985,1.437353269,0.000441618,-0.000926179,,,,,,,
7.237267284,2.507245575,0.000450173,-0.001233081,,,,,,,
7.237267284,2.507245575,0.000450173,-0.001233081,,,,,,,
7.241344538,2.114740101,0.000477784,-0.001150298,,,,,,,
7.246592527,1.716738868,0.000466314,-0.001030088,,,,,,,
7.246592527,1.716738868,0.000466314,-0.001030088,,,,,,,
7.25,2.75,0.000405185,-0.001254849,,,,,,,
7.255282019,0.142166742,7.15168E-05,-0.000118659,,,,,,,
7.255282019,0.142166742,7.15168E-05,-0.000118659,,,,,,,
7.25974708,2.357022208,0.000465128,-0.001194322,,,,,,,
7.25974708,2.357022208,0.000465128,-0.001194322,,,,,,,
7.262455002,2.257384924,0.000471667,-0.001172829,,,,,,,
7.262455002,2.257384924,0.000471667,-0.001172829,,,,,,,
7.266086627,0.423154085,0.000191928,-0.000334285,,,,,,,
7.272479796,2.599776634,0.000433397,-0.0012252,,,,,,,
7.272479796,2.599776634,0.000433397,-0.0012252,,,,,,,
7.278057685,0.703929679,0.000287315,-0.000524561,,,,,,,
7.291195195,0.984493523,0.000360302,-0.000689482,,,,,,,
7.291195195,0.984493523,0.000360302,-0.000689482,,,,,,,
7.294959592,2.449553267,0.000453408,-0.001190915,,,,,,,
7.306513276,1.280227822,0.000415102,-0.000835812,,,,,,,
7.306513276,1.280227822,0.000415102,-0.000835812,,,,,,,
7.307692308,2.692307692,0.000412918,-0.001212969,,,,,,,
7.307692308,2.692307692,0.000412918,-0.001212969,,,,,,,
7.307692308,2.692307692,0.000412918,-0.001212969,,,,,,,
7.315846816,1.907296744,0.0004694,-0.001062425,,,,,,,
7.315846816,1.907296744,0.0004694,-0.001062425,,,,,,,
7.321296818,1.559613421,0.00044789,-0.000947991,,,,,,,
7.330172104,2.542084326,0.000438357,-0.001183489,,,,,,,
7.333333333,0,0,0,,,,,,,
7.333333333,0,0,0,,,,,,,
7.333333333,0,0,0,,,,,,,
7.33695728,2.049941567,0.000470126,-0.001089714,,,,,,,
7.344137941,0.280987343,0.000132954,-0.000224441,,,,,,,
7.3526519,2.391860959,0.000455209,-0.00114946,,,,,,,
7.3526519,2.391860959,0.000455209,-0.00114946,,,,,,,
7.354942549,0.561974686,0.000239334,-0.000423288,,,,,,,
7.354942549,0.561974686,0.000239334,-0.000423288,,,,,,,
7.355359822,2.292223675,0.000462662,-0.001131162,,,,,,,
7.358067744,2.192586391,0.000466755,-0.001110764,,,,,,,
7.358067744,2.192586391,0.000466755,-0.001110764,,,,,,,
7.363315733,1.794585159,0.000460278,-0.001011253,,,,,,,
7.365384615,2.634615385,0.00041958,-0.001171793,,,,,,,
7.368080058,0.84253853,0.000322043,-0.000596109,,,,,,,
7.381217567,1.123102374,0.00038349,-0.000743509,,,,,,,
7.381217567,1.123102374,0.00038349,-0.000743509,,,,,,,
7.381217567,1.123102374,0.00038349,-0.000743509,,,,,,,
7.381217567,1.123102374,0.00038349,-0.000743509,,,,,,,
7.381217567,1.123102374,0.00038349,-0.000743509,,,,,,,
7.381217567,1.123102374,0.00038349,-0.000743509,,,,,,,
7.387864411,2.484392018,0.000442005,-0.001142497,,,,,,,
7.396001109,1.402487974,0.000425027,-0.000864502,,,,,,,
7.41078465,1.681873573,0.000449095,-0.000959594,,,,,,,
7.41078465,1.681873573,0.000449095,-0.000959594,,,,,,,
7.422189255,0.1388206,6.84562E-05,-0.000112234,,,,,,,
7.422189255,0.1388206,6.84562E-05,-0.000112234,,,,,,,
7.423076923,2.576923077,0.000425076,-0.001131375,,,,,,,
7.432570022,1.985143034,0.000459633,-0.001031394,,,,,,,
7.432570022,1.985143034,0.000459633,-0.001031394,,,,,,,
7.432993863,0.419807943,0.000186264,-0.000319863,,,,,,,
7.444964921,0.700583537,0.000279157,-0.000501229,,,,,,,
7.445556719,2.42669971,0.000444211,-0.001102273,,,,,,,
7.445556719,2.42669971,0.000444211,-0.001102273,,,,,,,
7.448264641,2.327062426,0.000452741,-0.001087171,,,,,,,
7.450972564,2.227425142,0.000457425,-0.00106989,,,,,,,
7.453680486,2.127787857,0.000458844,-0.001050737,,,,,,,
7.453680486,2.127787857,0.000458844,-0.001050737,,,,,,,
7.458102431,0.981147381,0.000349757,-0.000656467,,,,,,,
7.458102431,0.981147381,0.000349757,-0.000656467,,,,,,,
7.4707054,1.245362527,0.000397514,-0.000779085,,,,,,,
7.4707054,1.245362527,0.000397514,-0.000779085,,,,,,,
7.480038939,1.872431449,0.000450684,-0.000985251,,,,,,,
7.480769231,2.519230769,0.000429295,-0.001091763,,,,,,,
7.485488941,1.524748126,0.000429493,-0.000883225,,,,,,,
7.5,0,0,0,,,,,,,
7.511045177,0.277641201,0.000128168,-0.000214234,,,,,,,
7.511045177,0.277641201,0.000128168,-0.000214234,,,,,,,
7.521849785,0.558628544,0.000231638,-0.000404586,,,,,,,
7.521849785,0.558628544,0.000231638,-0.000404586,,,,,,,
7.527507856,1.759719864,0.000440102,-0.000938939,,,,,,,
7.534987294,0.839192388,0.000311637,-0.000568059,,,,,,,
7.534987294,0.839192388,0.000311637,-0.000568059,,,,,,,
7.538461538,2.461538462,0.000432098,-0.001053016,,,,,,,
7.538461538,2.461538462,0.000432098,-0.001053016,,,,,,,
7.538461538,2.461538462,0.000432098,-0.001053016,,,,,,,
7.541169461,2.361901177,0.000442019,-0.00104116,,,,,,,
7.541169461,2.361901177,0.000442019,-0.00104116,,,,,,,
7.543877383,2.262263893,0.000447449,-0.001026933,,,,,,,
7.543877383,2.262263893,0.000447449,-0.001026933,,,,,,,
7.546585305,2.162626609,0.000448938,-0.001010777,,,,,,,
7.546585305,2.162626609,0.000448938,-0.001010777,,,,,,,
7.548432791,1.116575528,0.000369908,-0.000703867,,,,,,,
7.548432791,1.116575528,0.000369908,-0.000703867,,,,,,,
7.549293228,2.062989324,0.000447538,-0.000993044,,,,,,,
7.549293228,2.062989324,0.000447538,-0.000993044,,,,,,,
7.549293228,2.062989324,0.000447538,-0.000993044,,,,,,,
7.549293228,2.062989324,0.000447538,-0.000993044,,,,,,,
7.549293228,2.062989324,0.000447538,-0.000993044,,,,,,,
7.549293228,2.062989324,0.000447538,-0.000993044,,,,,,,
7.560193232,1.367622679,0.0004059,-0.000804885,,,,,,,
7.560193232,1.367622679,0.0004059,-0.000804885,,,,,,,
7.574976774,1.647008278,0.000428361,-0.000891667,,,,,,,
7.574976774,1.647008278,0.000428361,-0.000891667,,,,,,,
7.588855922,0.1388206,6.65191E-05,-0.000108544,,,,,,,
7.596153846,2.403846154,0.000433329,-0.001015165,,,,,,,
7.596762145,1.950277739,0.000437814,-0.000952015,,,,,,,
7.596762145,1.950277739,0.000437814,-0.000952015,,,,,,,
7.598861768,2.30420887,0.000440409,-0.001003259,,,,,,,
7.599901099,0.416461801,0.000179384,-0.000305637,,,,,,,
7.599901099,0.416461801,0.000179384,-0.000305637,,,,,,,
7.601569691,2.204571585,0.000442852,-0.000989177,,,,,,,
7.604277613,2.104934301,0.000441554,-0.000973561,,,,,,,
7.604277613,2.104934301,0.000441554,-0.000973561,,,,,,,
7.611872158,0.697237395,0.000269153,-0.000478054,,,,,,,
7.611872158,0.697237395,0.000269153,-0.000478054,,,,,,,
7.625317655,0.974620535,0.000336193,-0.000621934,,,,,,,
7.637920624,1.23883568,0.00038151,-0.000734964,,,,,,,
7.644231062,1.837566154,0.000426849,-0.000911202,,,,,,,
7.644231062,1.837566154,0.000426849,-0.000911202,,,,,,,
7.649681065,1.489882831,0.000408448,-0.000820703,,,,,,,
7.649681065,1.489882831,0.000408448,-0.000820703,,,,,,,
7.653846154,2.346153846,0.000432775,-0.00097829,,,,,,,
7.656554076,2.246516562,0.00043663,-0.000966321,,,,,,,
7.659261998,2.146879277,0.000435746,-0.000952579,,,,,,,
7.659261998,2.146879277,0.000435746,-0.000952579,,,,,,,
7.661969921,2.047241993,0.000431637,-0.00093753,,,,,,,
7.661969921,2.047241993,0.000431637,-0.00093753,,,,,,,
7.666666667,0,0,0,,,,,,,
7.677711844,0.277641201,0.000123888,-0.000206604,,,,,,,
7.688757021,0.555282402,0.000222372,-0.000386141,,,,,,,
7.688757021,0.555282402,0.000222372,-0.000386141,,,,,,,
7.688757021,0.555282402,0.000222372,-0.000386141,,,,,,,
7.688757021,0.555282402,0.000222372,-0.000386141,,,,,,,
7.688757021,0.555282402,0.000222372,-0.000386141,,,,,,,
7.688757021,0.555282402,0.000222372,-0.000386141,,,,,,,
7.69169998,1.724854568,0.000416038,-0.000869584,,,,,,,
7.69169998,1.724854568,0.000416038,-0.000869584,,,,,,,
7.702202518,0.832665542,0.000298311,-0.000538567,,,,,,,
7.709438838,1.934530408,0.000418924,-0.000900425,,,,,,,
7.711538462,2.288461538,0.000430165,-0.000942413,,,,,,,
7.714246384,2.188824254,0.000430309,-0.000930343,,,,,,,
7.714246384,2.188824254,0.000430309,-0.000930343,,,,,,,
7.715648015,1.110048682,0.000353812,-0.000664552,,,,,,,
7.715648015,1.110048682,0.000353812,-0.000664552,,,,,,,
7.716954306,2.08918697,0.000425653,-0.000916949,,,,,,,
7.727408456,1.361095833,0.000387228,-0.000756148,,,,,,,
7.739168897,1.612142983,0.00040479,-0.00082628,,,,,,,
7.739168897,1.612142983,0.00040479,-0.00082628,,,,,,,
7.739168897,1.612142983,0.00040479,-0.00082628,,,,,,,
7.739168897,1.612142983,0.00040479,-0.00082628,,,,,,,
7.739168897,1.612142983,0.00040479,-0.00082628,,,,,,,
7.739168897,1.612142983,0.00040479,-0.00082628,,,,,,,
7.755522589,0.1388206,6.40821E-05,-0.000104898,,,,,,,
7.756907755,1.821818823,0.000407549,-0.000863901,,,,,,,
7.766567766,0.416461801,0.000172444,-0.000293862,,,,,,,
7.766567766,0.416461801,0.000172444,-0.000293862,,,,,,,
7.769230769,2.230769231,0.000425196,-0.000907427,,,,,,,
7.769230769,2.230769231,0.000425196,-0.000907427,,,,,,,
7.771938692,2.131131946,0.000420567,-0.000895339,,,,,,,
7.774646614,2.031494662,0.000413038,-0.000883498,,,,,,,
7.774646614,2.031494662,0.000413038,-0.000883498,,,,,,,
7.779087382,0.690710549,0.000256371,-0.000453481,,,,,,,
7.779087382,0.690710549,0.000256371,-0.000453481,,,,,,,
7.792532879,0.968093689,0.000320288,-0.000587931,,,,,,,
7.804376673,1.709107237,0.000398225,-0.000824901,,,,,,,
7.804376673,1.709107237,0.000398225,-0.000824901,,,,,,,
7.805135848,1.232308834,0.000362831,-0.000691166,,,,,,,
7.816896289,1.483355985,0.000386829,-0.000767126,,,,,,,
7.816896289,1.483355985,0.000386829,-0.000767126,,,,,,,
7.822115531,1.918783077,0.000396525,-0.000851132,,,,,,,
7.826923077,2.173076923,0.00041698,-0.000874108,,,,,,,
7.829630999,2.073439639,0.000406787,-0.000862255,,,,,,,
7.833333333,0,0,0,,,,,,,
7.844378511,0.277641201,0.000118657,-0.000199097,,,,,,,
7.844378511,0.277641201,0.000118657,-0.000199097,,,,,,,
7.853323066,0.552412852,0.000211804,-0.000368631,,,,,,,
7.853323066,0.552412852,0.000211804,-0.000368631,,,,,,,
7.869417742,0.826138696,0.000282861,-0.000509801,,,,,,,
7.869417742,0.826138696,0.000282861,-0.000509801,,,,,,,
7.869584449,1.806071492,0.000386966,-0.000817525,,,,,,,
7.869584449,1.806071492,0.000386966,-0.000817525,,,,,,,
7.882863239,1.103521836,0.000335126,-0.000625883,,,,,,,
7.882863239,1.103521836,0.000335126,-0.000625883,,,,,,,
7.884615385,2.115384615,0.000404781,-0.000841999,,,,,,,
7.887323307,2.015747331,0.000387477,-0.000830947,,,,,,,
7.887323307,2.015747331,0.000387477,-0.000830947,,,,,,,
7.89462368,1.354568987,0.000365732,-0.000707608,,,,,,,
7.89462368,1.354568987,0.000365732,-0.000707608,,,,,,,
7.897371028,1.618606379,0.000381664,-0.000773028,,,,,,,
7.897371028,1.618606379,0.000381664,-0.000773028,,,,,,,
7.922189255,0.1388206,6.11335E-05,-0.000101336,,,,,,,
7.922189255,0.1388206,6.11335E-05,-0.000101336,,,,,,,
7.931133811,0.413592252,0.000163324,-0.000280753,,,,,,,
7.934792224,1.903035746,0.000370498,-0.00080266,,,,,,,
7.934792224,1.903035746,0.000370498,-0.00080266,,,,,,,
7.942307692,2.057692308,0.000385063,-0.000808772,,,,,,,
7.943653427,0.687840999,0.000242914,-0.000431928,,,,,,,
7.959748102,0.961566843,0.000301978,-0.000554886,,,,,,,
7.959748102,0.961566843,0.000301978,-0.000554886,,,,,,,
7.962578804,1.715570633,0.000371278,-0.000766342,,,,,,,
7.972351071,1.225781988,0.000341285,-0.000648131,,,,,,,
7.972351071,1.225781988,0.000341285,-0.000648131,,,,,,,
7.975098419,1.48981938,0.000364277,-0.000719011,,,,,,,
8,0,0,0,,,,,,,
8,0,0,0,,,,,,,
8,0,0,0,,,,,,,
8,2,0.000344959,-0.000772767,,,,,,,
8,2,0.000344959,-0.000772767,,,,,,,
8,2,0.000344959,-0.000772767,,,,,,,
8,2,0.000344959,-0.000772767,,,,,,,
8.008944556,0.274771651,0.000111518,-0.000190067,,,,,,,
8.017889112,0.549543302,0.000199689,-0.000351751,,,,,,,
8.017889112,0.549543302,0.000199689,-0.000351751,,,,,,,
8.027786579,1.812534887,0.000354808,-0.000750648,,,,,,,
8.033983787,0.823269146,0.000266348,-0.000484182,,,,,,,
8.050078463,1.09699499,0.000313759,-0.000588494,,,,,,,
8.050078463,1.09699499,0.000313759,-0.000588494,,,,,,,
8.050078463,1.09699499,0.000313759,-0.000588494,,,,,,,
8.050078463,1.09699499,0.000313759,-0.000588494,,,,,,,
8.050078463,1.09699499,0.000313759,-0.000588494,,,,,,,
8.050078463,1.09699499,0.000313759,-0.000588494,,,,,,,
8.052825811,1.361032382,0.000343478,-0.000665704,,,,,,,
8.055573159,1.625069774,0.000354582,-0.000717306,,,,,,,
8.055573159,1.625069774,0.000354582,-0.000717306,,,,,,,
8.085509228,2,0.000298003,-0.000713618,,,,,,,
8.086755301,0.135951051,5.65931E-05,-9.60024E-05,,,,,,,
8.086755301,0.135951051,5.65931E-05,-9.60024E-05,,,,,,,
8.092994355,1.909499141,0.000325259,-0.000720625,,,,,,,
8.092994355,1.909499141,0.000325259,-0.000720625,,,,,,,
8.095699857,0.410722702,0.000153023,-0.00026824,,,,,,,
8.108219472,0.684971449,0.000227631,-0.00041132,,,,,,,
8.120780935,1.722034028,0.000339574,-0.000703669,,,,,,,
8.124314148,0.958697293,0.000282239,-0.000525249,,,,,,,
8.124314148,0.958697293,0.000282239,-0.000525249,,,,,,,
8.130553202,1.232245384,0.000319495,-0.000612628,,,,,,,
8.130553202,1.232245384,0.000319495,-0.000612628,,,,,,,
8.13330055,1.496282776,0.000337835,-0.000670908,,,,,,,
8.166666667,0,0,0,,,,,,,
8.171018456,2,0.000270647,-0.000673263,,,,,,,
8.173510601,0.271902102,0.000103608,-0.000181521,,,,,,,
8.173510601,0.271902102,0.000103608,-0.000181521,,,,,,,
8.178503583,1.909499141,0.000299767,-0.000679001,,,,,,,
8.182455157,0.546673753,0.000186101,-0.000335772,,,,,,,
8.182455157,0.546673753,0.000186101,-0.000335772,,,,,,,
8.18598871,1.818998282,0.000314691,-0.000679371,,,,,,,
8.18598871,1.818998282,0.000314691,-0.000679371,,,,,,,
8.198549833,0.820399596,0.000247772,-0.000459956,,,,,,,
8.198549833,0.820399596,0.000247772,-0.000459956,,,,,,,
8.211027942,1.367495777,0.000317778,-0.000625055,,,,,,,
8.211027942,1.367495777,0.000317778,-0.000625055,,,,,,,
8.21377529,1.631533169,0.000322594,-0.000662604,,,,,,,
8.21377529,1.631533169,0.000322594,-0.000662604,,,,,,,
8.2306087,1.100146473,0.00028903,-0.000553801,,,,,,,
8.2306087,1.100146473,0.00028903,-0.000553801,,,,,,,
8.253421967,0.135951051,5.27362E-05,-9.28341E-05,,,,,,,
8.256527685,2,0.000251448,-0.000640184,,,,,,,
8.260265902,0.407853152,0.000141635,-0.0002565,,,,,,,
8.260265902,0.407853152,0.000141635,-0.0002565,,,,,,,
8.264012812,1.909499141,0.000277326,-0.000644926,,,,,,,
8.271497938,1.818998282,0.000293477,-0.000647195,,,,,,,
8.272785518,0.6821019,0.000210656,-0.000392047,,,,,,,
8.272785518,0.6821019,0.000210656,-0.000392047,,,,,,,
8.278983065,1.728497424,0.000302624,-0.000645443,,,,,,,
8.278983065,1.728497424,0.000302624,-0.000645443,,,,,,,
8.291502681,1.502746171,0.000307618,-0.00062555,,,,,,,
8.291502681,1.502746171,0.000307618,-0.00062555,,,,,,,
8.304844385,0.961848776,0.000259003,-0.00049724,,,,,,,
8.31108344,1.235396867,0.000290746,-0.000573524,,,,,,,
8.333333333,0,0,0,,,,,,,
8.340177268,0.271902102,9.5821E-05,-0.000175182,,,,,,,
8.342036913,2,0.000235128,-0.000612369,,,,,,,
8.342036913,2,0.000235128,-0.000612369,,,,,,,
8.347021203,0.543804203,0.000171196,-0.000320969,,,,,,,
8.347021203,0.543804203,0.000171196,-0.000320969,,,,,,,
8.347021203,0.543804203,0.000171196,-0.000320969,,,,,,,
8.347021203,0.543804203,0.000171196,-0.000320969,,,,,,,
8.347021203,0.543804203,0.000171196,-0.000320969,,,,,,,
8.347021203,0.543804203,0.000171196,-0.000320969,,,,,,,
8.34952204,1.909499141,0.000256975,-0.000617077,,,,,,,
8.34952204,1.909499141,0.000256975,-0.000617077,,,,,,,
8.357007167,1.818998282,0.000272501,-0.000619751,,,,,,,
8.357007167,1.818998282,0.000272501,-0.000619751,,,,,,,
8.364492294,1.728497424,0.000282444,-0.000619081,,,,,,,
8.364492294,1.728497424,0.000282444,-0.000619081,,,,,,,
8.371977421,1.637996565,0.000287758,-0.000614742,,,,,,,
8.371977421,1.637996565,0.000287758,-0.000614742,,,,,,,
8.371977421,1.637996565,0.000287758,-0.000614742,,,,,,,
8.371977421,1.637996565,0.000287758,-0.000614742,,,,,,,
8.371977421,1.637996565,0.000287758,-0.000614742,,,,,,,
8.371977421,1.637996565,0.000287758,-0.000614742,,,,,,,
8.371977421,1.637996565,0.000287758,-0.000614742,,,,,,,
8.37908007,0.823551079,0.000226418,-0.000437991,,,,,,,
8.391558179,1.37064726,0.000284764,-0.000582482,,,,,,,
8.411138938,1.103297956,0.000261411,-0.000522404,,,,,,,
8.411138938,1.103297956,0.000261411,-0.000522404,,,,,,,
8.420088634,0.135951051,4.8454E-05,-8.99044E-05,,,,,,,
8.426932569,0.407853152,0.000129923,-0.000247105,,,,,,,
8.426932569,0.407853152,0.000129923,-0.000247105,,,,,,,
8.449771789,2,0.000216349,-0.000584361,,,,,,,
8.453315755,0.685253383,0.000191625,-0.000375506,,,,,,,
8.453315755,0.685253383,0.000191625,-0.000375506,,,,,,,
8.457256916,1.909499141,0.000234589,-0.000588518,,,,,,,
8.464742043,1.818998282,0.000248615,-0.000590915,,,,,,,
8.472032919,1.505897654,0.000270701,-0.000581377,,,,,,,
8.472032919,1.505897654,0.000270701,-0.000581377,,,,,,,
8.47222717,1.728497424,0.000258355,-0.000590796,,,,,,,
8.47222717,1.728497424,0.000258355,-0.000590796,,,,,,,
8.485374623,0.965000259,0.000233352,-0.000472242,,,,,,,
8.486351122,0.533035041,0.00015582,-0.000305641,,,,,,,
8.486351122,0.533035041,0.00015582,-0.000305641,,,,,,,
8.491613677,1.238548349,0.000259304,-0.000539444,,,,,,,
8.5,0,0,0,,,,,,,
8.506843935,0.271902102,8.73081E-05,-0.000169406,,,,,,,
8.506843935,0.271902102,8.73081E-05,-0.000169406,,,,,,,
8.510770271,1.640368923,0.000257449,-0.000580773,,,,,,,
8.510770271,1.640368923,0.000257449,-0.000580773,,,,,,,
8.557506666,2,0.000199288,-0.000561284,,,,,,,
8.559610308,0.826702562,0.000203077,-0.000418624,,,,,,,
8.559610308,0.826702562,0.000203077,-0.000418624,,,,,,,
8.564991793,1.909499141,0.000214426,-0.000565172,,,,,,,
8.566262488,0.39708399,0.000116787,-0.000234524,,,,,,,
8.572088417,1.373798743,0.000250006,-0.000547179,,,,,,,
8.572088417,1.373798743,0.000250006,-0.000547179,,,,,,,
8.57247692,1.818998282,0.000226651,-0.00056744,,,,,,,
8.57247692,1.818998282,0.000226651,-0.00056744,,,,,,,
8.586755301,0.135951051,4.38149E-05,-8.72545E-05,,,,,,,
8.586755301,0.135951051,4.38149E-05,-8.72545E-05,,,,,,,
8.591669175,1.106449439,0.000231768,-0.000495492,,,,,,,
8.591669175,1.106449439,0.000231768,-0.000495492,,,,,,,
8.592645675,0.67448422,0.000173437,-0.000358934,,,,,,,
8.610825769,1.508270012,0.000242242,-0.000554034,,,,,,,
8.61102002,1.730869782,0.000229111,-0.000561582,,,,,,,
8.625681042,0.522265879,0.000140153,-0.000291698,,,,,,,
8.625681042,0.522265879,0.000140153,-0.000291698,,,,,,,
8.646173854,0.261132939,7.69144E-05,-0.000159114,,,,,,,
8.649563121,1.642741281,0.000228489,-0.000553795,,,,,,,
8.649563121,1.642741281,0.000228489,-0.000553795,,,,,,,
8.665241543,2,0.000183263,-0.000542285,,,,,,,
8.66590486,0.968151742,0.00020603,-0.000450972,,,,,,,
8.66590486,0.968151742,0.00020603,-0.000450972,,,,,,,
8.666666667,0,0,0,,,,,,,
8.666666667,0,0,0,,,,,,,
8.666666667,0,0,0,,,,,,,
8.672143915,1.241699832,0.000226557,-0.000511438,,,,,,,
8.672143915,1.241699832,0.000226557,-0.000511438,,,,,,,
8.672726669,1.909499141,0.000195785,-0.000546036,,,,,,,
8.672726669,1.909499141,0.000195785,-0.000546036,,,,,,,
8.698940228,0.8159334,0.000182284,-0.00040138,,,,,,,
8.705592408,0.386314828,0.000103619,-0.000223008,,,,,,,
8.710881267,1.376171101,0.000223134,-0.000525258,,,,,,,
8.71126977,1.821370641,0.000200276,-0.000543271,,,,,,,
8.72608522,0.125181889,3.6733E-05,-7.88097E-05,,,,,,,
8.72608522,0.125181889,3.6733E-05,-7.88097E-05,,,,,,,
8.731975595,0.663715058,0.000154986,-0.00034415,,,,,,,
8.749618619,1.51064237,0.000214516,-0.000532019,,,,,,,
8.74981287,1.73324214,0.000201934,-0.000538865,,,,,,,
8.765010962,0.511496716,0.000124391,-0.000279126,,,,,,,
8.765010962,0.511496716,0.000124391,-0.000279126,,,,,,,
8.772199413,1.109600921,0.000201081,-0.000473542,,,,,,,
8.772199413,1.109600921,0.000201081,-0.000473542,,,,,,,
8.772199413,1.109600921,0.000201081,-0.000473542,,,,,,,
8.772199413,1.109600921,0.000201081,-0.000473542,,,,,,,
8.772199413,1.109600921,0.000201081,-0.000473542,,,,,,,
8.772199413,1.109600921,0.000201081,-0.000473542,,,,,,,
8.772199413,1.109600921,0.000201081,-0.000473542,,,,,,,
8.772976419,2,0.000167841,-0.000526617,,,,,,,
8.772976419,2,0.000167841,-0.000526617,,,,,,,
8.772976419,2,0.000167841,-0.000526617,,,,,,,
8.785503774,0.250363777,6.67447E-05,-0.000149576,,,,,,,
8.785503774,0.250363777,6.67447E-05,-0.000149576,,,,,,,
8.788355971,1.645113639,0.00020108,-0.000532616,,,,,,,
8.788355971,1.645113639,0.00020108,-0.000532616,,,,,,,
8.80523478,0.95738258,0.000183029,-0.000433794,,,,,,,
8.80523478,0.95738258,0.000183029,-0.000433794,,,,,,,
8.810936765,1.24407219,0.000201218,-0.000494029,,,,,,,
8.810936765,1.24407219,0.000201218,-0.000494029,,,,,,,
8.81151952,1.911871499,0.000172944,-0.000526251,,,,,,,
8.81151952,1.911871499,0.000172944,-0.000526251,,,,,,,
8.833333333,0,0,0,,,,,,,
8.838270147,0.805164238,0.000161371,-0.000386348,,,,,,,
8.838270147,0.805164238,0.000161371,-0.000386348,,,,,,,
8.844922328,0.375545666,9.0579E-05,-0.000212515,,,,,,,
8.844922328,0.375545666,9.0579E-05,-0.000212515,,,,,,,
8.849674117,1.378543459,0.000196674,-0.000507504,,,,,,,
8.849674117,1.378543459,0.000196674,-0.000507504,,,,,,,
8.85006262,1.823742999,0.000175793,-0.000524549,,,,,,,
8.85006262,1.823742999,0.000175793,-0.000524549,,,,,,,
8.871305515,0.652945896,0.000136497,-0.000331096,,,,,,,
8.871305515,0.652945896,0.000136497,-0.000331096,,,,,,,
8.888411469,1.513014728,0.000187778,-0.000514606,,,,,,,
8.888411469,1.513014728,0.000187778,-0.000514606,,,,,,,
8.888605721,1.735614498,0.000176469,-0.00052124,,,,,,,
8.888605721,1.735614498,0.000176469,-0.00052124,,,,,,,
8.892751887,0.125181889,3.20383E-05,-7.69155E-05,,,,,,,
8.904340882,0.500727554,0.000108713,-0.000267862,,,,,,,
8.904340882,0.500727554,0.000108713,-0.000267862,,,,,,,
8.904340882,0.500727554,0.000108713,-0.000267862,,,,,,,
8.904340882,0.500727554,0.000108713,-0.000267862,,,,,,,
8.904340882,0.500727554,0.000108713,-0.000267862,,,,,,,
8.908713858,2,0.000149002,-0.000510707,,,,,,,
8.927148821,1.647485997,0.000175132,-0.000516125,,,,,,,
8.927148821,1.647485997,0.000175132,-0.000516125,,,,,,,
8.927148821,1.647485997,0.000175132,-0.000516125,,,,,,,
8.927148821,1.647485997,0.000175132,-0.000516125,,,,,,,
8.927148821,1.647485997,0.000175132,-0.000516125,,,,,,,
8.9296959,1.044728608,0.000170005,-0.000444047,,,,,,,
8.9296959,1.044728608,0.000170005,-0.000444047,,,,,,,
8.929855403,1.204702276,0.000178335,-0.00047519,,,,,,,
8.929855403,1.204702276,0.000178335,-0.00047519,,,,,,,
8.947256958,1.911871499,0.000152001,-0.000511272,,,,,,,
8.952170441,0.250363777,5.77263E-05,-0.000145942,,,,,,,
8.962731268,0.892510267,0.000152557,-0.000403345,,,,,,,
8.968592755,1.339173545,0.000174348,-0.000490618,,,,,,,
8.985800059,1.823742999,0.000153323,-0.000510392,,,,,,,
8.995766635,0.740291925,0.000132047,-0.000354837,,,,,,,
9,0,0,0,,,,,,,
9.007330107,1.473644814,0.000166576,-0.000499934,,,,,,,
9.011588995,0.375545666,7.76021E-05,-0.000207346,,,,,,,
9.011588995,0.375545666,7.76021E-05,-0.000207346,,,,,,,
9.024343159,1.735614498,0.000152965,-0.000507879,,,,,,,
9.024343159,1.735614498,0.000152965,-0.000507879,,,,,,,
9.028802002,0.588073583,0.000108859,-0.00029834,,,,,,,
9.028802002,0.588073583,0.000108859,-0.00029834,,,,,,,
9.044451297,2,0.000130476,-0.000498314,,,,,,,
9.046067459,1.608116083,0.000155637,-0.00050381,,,,,,,
9.046067459,1.608116083,0.000155637,-0.00050381,,,,,,,
9.059418554,0.125181889,2.72322E-05,-7.53233E-05,,,,,,,
9.082994397,1.911871499,0.000131713,-0.000499644,,,,,,,
9.087192388,0.979856295,0.000140071,-0.000417509,,,,,,,
9.087192388,0.979856295,0.000140071,-0.000417509,,,,,,,
9.08735189,1.139829963,0.000148399,-0.000451044,,,,,,,
9.087511393,1.299803631,0.000152473,-0.000475771,,,,,,,
9.087511393,1.299803631,0.000152473,-0.000475771,,,,,,,
9.118837108,0.250363777,4.85434E-05,-0.000142945,,,,,,,
9.118837108,0.250363777,4.85434E-05,-0.000142945,,,,,,,
9.120227755,0.827637954,0.000123509,-0.000375306,,,,,,,
9.121537498,1.823742999,0.000131692,-0.000499447,,,,,,,
9.121537498,1.823742999,0.000131692,-0.000499447,,,,,,,
9.126248745,1.4342749,0.000145654,-0.000487205,,,,,,,
9.136050115,0.462891694,8.05013E-05,-0.000243255,,,,,,,
9.143261797,1.696244584,0.000135035,-0.000498436,,,,,,,
9.153263122,0.675419612,0.000104492,-0.000325184,,,,,,,
9.153263122,0.675419612,0.000104492,-0.000325184,,,,,,,
9.164986097,1.568746169,0.000136137,-0.00049329,,,,,,,
9.164986097,1.568746169,0.000136137,-0.00049329,,,,,,,
9.166666667,0,0,0,,,,,,,
9.180188736,2,0.000112068,-0.000488728,,,,,,,
9.218731836,1.911871499,0.000111838,-0.000490701,,,,,,,
9.218731836,1.911871499,0.000111838,-0.000490701,,,,,,,
9.22608522,0.125181889,2.23766E-05,-7.40288E-05,,,,,,,
9.22608522,0.125181889,2.23766E-05,-7.40288E-05,,,,,,,
9.240456136,1.784373084,0.000115124,-0.000492523,,,,,,,
9.243298228,0.337709806,5.41948E-05,-0.000184121,,,,,,,
9.244688875,0.914983982,0.000111495,-0.000393034,,,,,,,
9.244688875,0.914983982,0.000111495,-0.000393034,,,,,,,
9.244848378,1.07495765,0.000119488,-0.000429222,,,,,,,
9.24500788,1.234931318,0.000123984,-0.000456727,,,,,,,
9.245167383,1.394904985,0.000124998,-0.000476021,,,,,,,
9.245167383,1.394904985,0.000124998,-0.000476021,,,,,,,
9.260511235,0.550237723,7.86555E-05,-0.000275432,,,,,,,
9.262180435,1.656874669,0.000116814,-0.000490447,,,,,,,
9.277724242,0.762765641,9.61686E-05,-0.000348885,,,,,,,
9.277724242,0.762765641,9.61686E-05,-0.000348885,,,,,,,
9.283904735,1.529376254,0.000116637,-0.000484187,,,,,,,
9.283904735,1.529376254,0.000116637,-0.000484187,,,,,,,
9.315926174,2,9.3662E-05,-0.000481406,,,,,,,
9.315926174,2,9.3662E-05,-0.000481406,,,,,,,
9.315926174,2,9.3662E-05,-0.000481406,,,,,,,
9.333333333,0,0,0,,,,,,,
9.333333333,0,0,0,,,,,,,
9.333333333,0,0,0,,,,,,,
9.333333333,0,0,0,,,,,,,
9.337650474,1.872501585,9.63439E-05,-0.000485983,,,,,,,
9.337650474,1.872501585,9.63439E-05,-0.000485983,,,,,,,
9.350546341,0.212527917,3.07572E-05,-0.000120368,,,,,,,
9.350546341,0.212527917,3.07572E-05,-0.000120368,,,,,,,
9.359374773,1.74500317,9.80304E-05,-0.000486788,,,,,,,
9.359374773,1.74500317,9.80304E-05,-0.000486788,,,,,,,
9.367759348,0.425055835,5.48244E-05,-0.000221473,,,,,,,
9.367759348,0.425055835,5.48244E-05,-0.000221473,,,,,,,
9.381099073,1.617504755,9.83623E-05,-0.000483606,,,,,,,
9.381099073,1.617504755,9.83623E-05,-0.000483606,,,,,,,
9.384972355,0.637583752,7.26058E-05,-0.000304316,,,,,,,
9.384972355,0.637583752,7.26058E-05,-0.000304316,,,,,,,
9.402185363,0.850111669,8.44823E-05,-0.000369894,,,,,,,
9.402185363,0.850111669,8.44823E-05,-0.000369894,,,,,,,
9.402185363,0.850111669,8.44823E-05,-0.000369894,,,,,,,
9.402185363,0.850111669,8.44823E-05,-0.000369894,,,,,,,
9.402185363,0.850111669,8.44823E-05,-0.000369894,,,,,,,
9.402185363,0.850111669,8.44823E-05,-0.000369894,,,,,,,
9.402344865,1.010085337,9.17451E-05,-0.00040895,,,,,,,
9.402344865,1.010085337,9.17451E-05,-0.00040895,,,,,,,
9.402504368,1.170059005,9.62404E-05,-0.000439357,,,,,,,
9.402504368,1.170059005,9.62404E-05,-0.000439357,,,,,,,
9.40266387,1.330032672,9.80002E-05,-0.000461598,,,,,,,
9.40266387,1.330032672,9.80002E-05,-0.000461598,,,,,,,
9.402823373,1.49000634,9.71484E-05,-0.000476195,,,,,,,
9.402823373,1.49000634,9.71484E-05,-0.000476195,,,,,,,
9.402823373,1.49000634,9.71484E-05,-0.000476195,,,,,,,
9.402823373,1.49000634,9.71484E-05,-0.000476195,,,,,,,
9.402823373,1.49000634,9.71484E-05,-0.000476195,,,,,,,
9.402823373,1.49000634,9.71484E-05,-0.000476195,,,,,,,
9.486944631,2,7.0401E-05,-0.000474766,,,,,,,
9.5,0,0,0,,,,,,,
9.5,0.166666667,1.88642E-05,-9.5045E-05,,,,,,,
9.5,0.166666667,1.88642E-05,-9.5045E-05,,,,,,,
9.50866893,1.872501585,7.12513E-05,-0.000479644,,,,,,,
9.517213007,0.379194584,3.8003E-05,-0.000199043,,,,,,,
9.53039323,1.74500317,7.14208E-05,-0.00048067,,,,,,,
9.534426015,0.591722501,5.19824E-05,-0.000284726,,,,,,,
9.551639022,0.970917085,6.73527E-05,-0.000395755,,,,,,,
9.551639022,0.804250419,6.11805E-05,-0.000353142,,,,,,,
9.551639022,0.804250419,6.11805E-05,-0.000353142,,,,,,,
9.551639022,0.970917085,6.73527E-05,-0.000395755,,,,,,,
9.551798524,1.130890753,7.11354E-05,-0.000427858,,,,,,,
9.551958027,1.290864421,7.28701E-05,-0.000451838,,,,,,,
9.552117529,1.617504755,7.06388E-05,-0.00047769,,,,,,,
9.552117529,1.450838088,7.26624E-05,-0.000468197,,,,,,,
9.552117529,1.617504755,7.06388E-05,-0.00047769,,,,,,,
9.552117529,1.450838088,7.26624E-05,-0.000468197,,,,,,,
9.657963087,2,4.70269E-05,-0.000470445,,,,,,,
9.666666667,0,0,0,,,,,,,
9.666666667,0.333333333,2.34692E-05,-0.000176812,,,,,,,
9.666666667,0.166666667,1.25458E-05,-9.42698E-05,,,,,,,
9.666666667,0.333333333,2.34692E-05,-0.000176812,,,,,,,
9.679687387,1.872501585,4.63663E-05,-0.000475576,,,,,,,
9.683879674,0.545861251,3.31892E-05,-0.000265654,,,,,,,
9.701092681,1.091722501,4.67485E-05,-0.000417566,,,,,,,
9.701092681,0.758389168,3.92804E-05,-0.000337167,,,,,,,
9.701092681,0.925055835,4.37669E-05,-0.000382055,,,,,,,
9.701092681,0.758389168,3.92804E-05,-0.000337167,,,,,,,
9.701092681,1.091722501,4.67485E-05,-0.000417566,,,,,,,
9.701252184,1.251696169,4.81916E-05,-0.000443339,,,,,,,
9.701411686,1.74500317,4.52284E-05,-0.000476799,,,,,,,
9.701411686,1.411669837,4.83373E-05,-0.000461477,,,,,,,
9.701411686,1.578336503,4.72839E-05,-0.000472779,,,,,,,
9.701411686,1.74500317,4.52284E-05,-0.000476799,,,,,,,
9.701411686,1.411669837,4.83373E-05,-0.000461477,,,,,,,
9.828981544,2,2.35461E-05,-0.000468021,,,,,,,
9.833333333,0,0,0,,,,,,,
9.833333333,0.5,1.63439E-05,-0.000246827,,,,,,,
9.833333333,0.166666667,6.26247E-06,-9.38136E-05,,,,,,,
9.833333333,0.333333333,1.17162E-05,-0.000175922,,,,,,,
9.833333333,0.5,1.63439E-05,-0.000246827,,,,,,,
9.850546341,1.212527917,2.39229E-05,-0.000435845,,,,,,,
9.850546341,0.712527917,1.8859E-05,-0.000321692,,,,,,,
9.850546341,0.879194584,2.12966E-05,-0.000369023,,,,,,,
9.850546341,1.045861251,2.29807E-05,-0.000406888,,,,,,,
9.850546341,0.712527917,1.8859E-05,-0.000321692,,,,,,,
9.850546341,1.212527917,2.39229E-05,-0.000435845,,,,,,,
9.850705843,1.872501585,2.15908E-05,-0.000473371,,,,,,,
9.850705843,1.372501585,2.41318E-05,-0.000455779,,,,,,,
9.850705843,1.539168252,2.37467E-05,-0.000468875,,,,,,,
9.850705843,1.705834918,2.28382E-05,-0.000474616,,,,,,,
9.850705843,1.872501585,2.15908E-05,-0.000473371,,,,,,,
9.850705843,1.372501585,2.41318E-05,-0.000455779,,,,,,,
10,1.333333333,0,-0.000450953,,,,,,,
10,2,0,-0.000467232,,,,,,,
10,1.666666667,0,-0.000473299,,,,,,,
10,1.5,0,-0.000465846,,,,,,,
10,1.833333333,0,-0.000473686,,,,,,,
10,0,0,0,,,,,,,
10,0.666666667,0,-0.000306497,,,,,,,
10,0.333333333,0,-0.000175629,,,,,,,
10,0.166666667,0,-9.36629E-05,,,,,,,
10,0.5,0,-0.0002464,,,,,,,
10,0.666666667,0,-0.000306497,,,,,,,
10,1.333333333,0,-0.000450953,,,,,,,
10,1,0,-0.000396804,,,,,,,
10,0.833333333,0,-0.000356448,,,,,,,
10,1.166666667,0,-0.000428119,,,,,,,
10,0.666666667,0,-0.000306497,,,,,,,
10,2,0,-0.000467232,,,,,,,
10,1.333333333,0,-0.000450953,,,,,,,
,,,,,,,,,,
,,,,,,,,,,
,,,,,,,,,,
,,,,,,,,,,
,,,,,,,,,,
,,,,,,,,,,
,,,,,,,,,,
,,,,,,,,,,
,,,,,,,,,,
,,,,,,,,,,
,,,,,,,,,,
,,,,,,,,,,
,,,,,,,,,,
,,,,,,,,,,
,,,,,,,,,,
,,,,,,,,,,
,,,,,,,,,,
,,,,,,,,,,
,,,,,,,,,,
,,,,,,,,,,
,,,,,,,,,,
,,,,,,,,,,
,,,,,,,,,,
,,,,,,,,,,
,,,,,,,,,,
,,,,,,,,,,
,,,,,,,,,,
,,,,,,,,,,
,,,,,,,,,,
,,,,,,,,,,
,,,,,,,,,,
,,,,,,,,,,
,,,,,,,,,,
,,,,,,,,,,
,,,,,,,,,,
,,,,,,,,,,
,,,,,,,,,,
,,,,,,,,,,
,,,,,,,,,,
,,,,,,,,,,
,,,,,,,,,,
,,,,,,,,,,
,,,,,,,,,,
,,,,,,,,,,
,,,,,,,,,,
,,,,,,,,,,
,,,,,,,,,,
,,,,,,,,,,
,,,,,,,,,,
,,,,,,,,,,
,,,,,,,,,,
,,,,,,,,,,
,,,,,,,,,,
,,,,,,,,,,
,,,,,,,,,,
,,,,,,,,,,
,,,,,,,,,,
,,,,,,,,,,
,,,,,,,,,,
,,,,,,,,,,
,,,,,,,,,,
,,,,,,,,,,
,,,,,,,,,,
,,,,,,,,,,
,,,,,,,,,,
,,,,,,,,,,
,,,,,,,,,,
,,,,,,,,,,
,,,,,,,,,,
,,,,,,,,,,
,,,,,,,,,,
,,,,,,,,,,
,,,,,,,,,,
,,,,,,,,,,
,,,,,,,,,,
,,,,,,,,,,
,,,,,,,,,,
,,,,,,,,,,
,,,,,,,,,,
,,,,,,,,,,
,,,,,,,,,,
,,,,,,,,,,
,,,,,,,,,,
,,,,,,,,,,
,,,,,,,,,,
,,,,,,,,,,
,,,,,,,,,,
,,,,,,,,,,
,,,,,,,,,,
,,,,,,,,,,
,,,,,,,,,,
,,,,,,,,,,
,,,,,,,,,,
,,,,,,,,,,
,,,,,,,,,,
,,,,,,,,,,
,,,,,,,,,,
,,,,,,,,,,
,,,,,,,,,,
,,,,,,,,,,
,,,,,,,,,,
,,,,,,,,,,
,,,,,,,,,,
,,,,,,,,,,
,,,,,,,,,,
,,,,,,,,,,
,,,,,,,,,,
,,,,,,,,,,
,,,,,,,,,,
,,,,,,,,,,
,,,,,,,,,,
,,,,,,,,,,
,,,,,,,,,,
,,,,,,,,,,
,,,,,,,,,,
,,,,,,,,,,
,,,,,,,,,,
,,,,,,,,,,
,,,,,,,,,,
,,,,,,,,,,
,,,,,,,,,,
,,,,,,,,,,
,,,,,,,,,,
,,,,,,,,,,
,,,,,,,,,,
,,,,,,,,,,
,,,,,,,,,,
,,,,,,,,,,
,,,,,,,,,,
,,,,,,,,,,
,,,,,,,,,,
,,,,,,,,,,
,,,,,,,,,,
,,,,,,,,,,
,,,,,,,,,,
,,,,,,,,,,
,,,,,,,,,,
,,,,,,,,,,
,,,,,,,,,,
,,,,,,,,,,
,,,,,,,,,,
,,,,,,,,,,
,,,,,,,,,,
,,,,,,,,,,
,,,,,,,,,,
,,,,,,,,,,
,,,,,,,,,,
,,,,,,,,,,
,,,,,,,,,,
,,,,,,,,,,
,,,,,,,,,,
,,,,,,,,,,
,,,,,,,,,,
,,,,,,,,,,
,,,,,,,,,,
,,,,,,,,,,
,,,,,,,,,,
,,,,,,,,,,
,,,,,,,,,,
,,,,,,,,,,
,,,,,,,,,,
,,,,,,,,,,
,,,,,,,,,,
,,,,,,,,,,
,,,,,,,,,,
,,,,,,,,,,
,,,,,,,,,,
,,,,,,,,,,
,,,,,,,,,,
,,,,,,,,,,
,,,,,,,,,,
,,,,,,,,,,
,,,,,,,,,,
,,,,,,,,,,
,,,,,,,,,,
,,,,,,,,,,
,,,,,,,,,,
,,,,,,,,,,
,,,,,,,,,,
,,,,,,,,,,
,,,,,,,,,,
,,,,,,,,,,
,,,,,,,,,,
,,,,,,,,,,
,,,,,,,,,,
,,,,,,,,,,
,,,,,,,,,,
,,,,,,,,,,
,,,,,,,,,,
,,,,,,,,,,
,,,,,,,,,,
,,,,,,,,,,
,,,,,,,,,,
,,,,,,,,,,
,,,,,,,,,,
,,,,,,,,,,
,,,,,,,,,,
,,,,,,,,,,
,,,,,,,,,,
,,,,,,,,,,
,,,,,,,,,,
,,,,,,,,,,
,,,,,,,,,,
,,,,,,,,,,
,,,,,,,,,,
,,,,,,,,,,
,,,,,,,,,,
,,,,,,,,,,
,,,,,,,,,,
,,,,,,,,,,
,,,,,,,,,,
,,,,,,,,,,
,,,,,,,,,,
,,,,,,,,,,
,,,,,,,,,,
,,,,,,,,,,
,,,,,,,,,,
,,,,,,,,,,
,,,,,,,,,,
,,,,,,,,,,
,,,,,,,,,,
,,,,,,,,,,
,,,,,,,,,,
,,,,,,,,,,
,,,,,,,,,,
,,,,,,,,,,
,,,,,,,,,,
,,,,,,,,,,
,,,,,,,,,,
,,,,,,,,,,
,,,,,,,,,,
,,,,,,,,,,
,,,,,,,,,,
,,,,,,,,,,
,,,,,,,,,,
,,,,,,,,,,
,,,,,,,,,,
,,,,,,,,,,
,,,,,,,,,,
,,,,,,,,,,
,,,,,,,,,,
,,,,,,,,,,
,,,,,,,,,,
,,,,,,,,,,
,,,,,,,,,,
,,,,,,,,,,
,,,,,,,,,,
,,,,,,,,,,
,,,,,,,,,,
,,,,,,,,,,
,,,,,,,,,,
,,,,,,,,,,
,,,,,,,,,,
,,,,,,,,,,
,,,,,,,,,,
,,,,,,,,,,
,,,,,,,,,,
,,,,,,,,,,
,,,,,,,,,,
,,,,,,,,,,
,,,,,,,,,,
,,,,,,,,,,
,,,,,,,,,,
,,,,,,,,,,
,,,,,,,,,,
,,,,,,,,,,
,,,,,,,,,,
,,,,,,,,,,
,,,,,,,,,,
,,,,,,,,,,
,,,,,,,,,,
,,,,,,,,,,
,,,,,,,,,,
,,,,,,,,,,
,,,,,,,,,,
,,,,,,,,,,
,,,,,,,,,,
,,,,,,,,,,
,,,,,,,,,,
,,,,,,,,,,
,,,,,,,,,,
,,,,,,,,,,
,,,,,,,,,,
,,,,,,,,,,
,,,,,,,,,,
,,,,,,,,,,
,,,,,,,,,,
,,,,,,,,,,
,,,,,,,,,,
,,,,,,,,,,
,,,,,,,,,,
,,,,,,,,,,
,,,,,,,,,,
,,,,,,,,,,
,,,,,,,,,,
,,,,,,,,,,
,,,,,,,,,,
,,,,,,,,,,
,,,,,,,,,,
,,,,,,,,,,
,,,,,,,,,,
,,,,,,,,,,
,,,,,,,,,,
,,,,,,,,,,
,,,,,,,,,,
,,,,,,,,,,
,,,,,,,,,,
,,,,,,,,,,
,,,,,,,,,,
,,,,,,,,,,
,,,,,,,,,,
,,,,,,,,,,
,,,,,,,,,,
,,,,,,,,,,
,,,,,,,,,,
,,,,,,,,,,
,,,,,,,,,,
,,,,,,,,,,
,,,,,,,,,,
,,,,,,,,,,
,,,,,,,,,,
,,,,,,,,,,
,,,,,,,,,,
,,,,,,,,,,
,,,,,,,,,,
,,,,,,,,,,
,,,,,,,,,,
,,,,,,,,,,
,,,,,,,,,,
,,,,,,,,,,
,,,,,,,,,,
,,,,,,,,,,
,,,,,,,,,,
,,,,,,,,,,
,,,,,,,,,,
,,,,,,,,,,
,,,,,,,,,,
,,,,,,,,,,
,,,,,,,,,,
,,,,,,,,,,
,,,,,,,,,,
,,,,,,,,,,
,,,,,,,,,,
,,,,,,,,,,
,,,,,,,,,,
,,,,,,,,,,
,,,,,,,,,,
,,,,,,,,,,
,,,,,,,,,,
,,,,,,,,,,
,,,,,,,,,,
,,,,,,,,,,
,,,,,,,,,,
,,,,,,,,,,
,,,,,,,,,,
,,,,,,,,,,
,,,,,,,,,,
,,,,,,,,,,
,,,,,,,,,,
,,,,,,,,,,
,,,,,,,,,,
,,,,,,,,,,
,,,,,,,,,,
,,,,,,,,,,
,,,,,,,,,,
,,,,,,,,,,
,,,,,,,,,,
,,,,,,,,,,
,,,,,,,,,,
,,,,,,,,,,
,,,,,,,,,,
,,,,,,,,,,
,,,,,,,,,,
,,,,,,,,,,
,,,,,,,,,,
,,,,,,,,,,
,,,,,,,,,,
,,,,,,,,,,
,,,,,,,,,,
,,,,,,,,,,
,,,,,,,,,,
,,,,,,,,,,
,,,,,,,,,,
,,,,,,,,,,
,,,,,,,,,,
,,,,,,,,,,
,,,,,,,,,,
,,,,,,,,,,
,,,,,,,,,,
,,,,,,,,,,
,,,,,,,,,,
,,,,,,,,,,
,,,,,,,,,,
,,,,,,,,,,
,,,,,,,,,,
,,,,,,,,,,
,,,,,,,,,,
,,,,,,,,,,
,,,,,,,,,,
,,,,,,,,,,
,,,,,,,,,,
,,,,,,,,,,
,,,,,,,,,,
,,,,,,,,,,
,,,,,,,,,,
,,,,,,,,,,
,,,,,,,,,,
,,,,,,,,,,
,,,,,,,,,,
,,,,,,,,,,
,,,,,,,,,,
,,,,,,,,,,
,,,,,,,,,,
,,,,,,,,,,
,,,,,,,,,,
,,,,,,,,,,
,,,,,,,,,,
,,,,,,,,,,
,,,,,,,,,,
,,,,,,,,,,
,,,,,,,,,,
,,,,,,,,,,
,,,,,,,,,,
,,,,,,,,,,
,,,,,,,,,,
,,,,,,,,,,
,,,,,,,,,,
,,,,,,,,,,
,,,,,,,,,,
,,,,,,,,,,
,,,,,,,,,,
,,,,,,,,,,
,,,,,,,,,,
,,,,,,,,,,
,,,,,,,,,,
,,,,,,,,,,
,,,,,,,,,,
,,,,,,,,,,
,,,,,,,,,,
,,,,,,,,,,
,,,,,,,,,,
,,,,,,,,,,
,,,,,,,,,,
,,,,,,,,,,
,,,,,,,,,,
,,,,,,,,,,
,,,,,,,,,,
,,,,,,,,,,
,,,,,,,,,,
,,,,,,,,,,
,,,,,,,,,,
,,,,,,,,,,
,,,,,,,,,,
,,,,,,,,,,
,,,,,,,,,,
,,,,,,,,,,
,,,,,,,,,,
,,,,,,,,,,
,,,,,,,,,,
,,,,,,,,,,
,,,,,,,,,,
,,,,,,,,,,
,,,,,,,,,,
,,,,,,,,,,
,,,,,,,,,,
